0 1458
0 1459
0 1460
0 1539
0 1542
0 1545
0 2916
0 2925
0 2934
0 4374
0 4401
0 4428
1 1494
1 1495
1 1496
1 1604
1 1607
1 1610
1 2945
1 2954
1 2963
1 4374
1 4401
1 4428
2 1530
2 1531
2 1532
2 1585
2 1588
2 1591
2 2971
2 2980
2 2989
2 4374
2 4401
2 4428
3 1497
3 1498
3 1499
3 1567
3 1570
3 1573
3 2916
3 2925
3 2934
3 4379
3 4406
3 4433
4 1533
4 1534
4 1535
4 1548
4 1551
4 1554
4 2945
4 2954
4 2963
4 4379
4 4406
4 4433
5 1461
5 1462
5 1463
5 1613
5 1616
5 1619
5 2971
5 2980
5 2989
5 4379
5 4406
5 4433
6 1536
6 1537
6 1538
6 1595
6 1598
6 1601
6 2916
6 2925
6 2934
6 4381
6 4408
6 4435
7 1464
7 1465
7 1466
7 1576
7 1579
7 1582
7 2945
7 2954
7 2963
7 4381
7 4408
7 4435
8 1500
8 1501
8 1502
8 1557
8 1560
8 1563
8 2971
8 2980
8 2989
8 4381
8 4408
8 4435
9 1470
9 1471
9 1472
9 1539
9 1542
9 1545
9 2920
9 2929
9 2938
9 4390
9 4417
9 4444
10 1506
10 1507
10 1508
10 1604
10 1607
10 1610
10 2946
10 2955
10 2964
10 4390
10 4417
10 4444
11 1515
11 1516
11 1517
11 1585
11 1588
11 1591
11 2975
11 2984
11 2993
11 4390
11 4417
11 4444
12 1509
12 1510
12 1511
12 1567
12 1570
12 1573
12 2920
12 2929
12 2938
12 4383
12 4410
12 4437
13 1518
13 1519
13 1520
13 1548
13 1551
13 1554
13 2946
13 2955
13 2964
13 4383
13 4410
13 4437
14 1473
14 1474
14 1475
14 1613
14 1616
14 1619
14 2975
14 2984
14 2993
14 4383
14 4410
14 4437
15 1512
15 1513
15 1514
15 1595
15 1598
15 1601
15 2920
15 2929
15 2938
15 4388
15 4415
15 4442
16 1467
16 1468
16 1469
16 1576
16 1579
16 1582
16 2946
16 2955
16 2964
16 4388
16 4415
16 4442
17 1503
17 1504
17 1505
17 1557
17 1560
17 1563
17 2975
17 2984
17 2993
17 4388
17 4415
17 4442
18 1482
18 1483
18 1484
18 1539
18 1542
18 1545
18 2924
18 2933
18 2942
18 4397
18 4424
18 4451
19 1491
19 1492
19 1493
19 1604
19 1607
19 1610
19 2950
19 2959
19 2968
19 4397
19 4424
19 4451
20 1527
20 1528
20 1529
20 1585
20 1588
20 1591
20 2976
20 2985
20 2994
20 4397
20 4424
20 4451
21 1485
21 1486
21 1487
21 1567
21 1570
21 1573
21 2924
21 2933
21 2942
21 4399
21 4426
21 4453
22 1521
22 1522
22 1523
22 1548
22 1551
22 1554
22 2950
22 2959
22 2968
22 4399
22 4426
22 4453
23 1476
23 1477
23 1478
23 1613
23 1616
23 1619
23 2976
23 2985
23 2994
23 4399
23 4426
23 4453
24 1524
24 1525
24 1526
24 1595
24 1598
24 1601
24 2924
24 2933
24 2942
24 4392
24 4419
24 4446
25 1479
25 1480
25 1481
25 1576
25 1579
25 1582
25 2950
25 2959
25 2968
25 4392
25 4419
25 4446
26 1488
26 1489
26 1490
26 1557
26 1560
26 1563
26 2976
26 2985
26 2994
26 4392
26 4419
26 4446
27 1458
27 1459
27 1460
27 1602
27 1605
27 1608
27 2974
27 2983
27 2992
27 4395
27 4422
27 4449
28 1494
28 1495
28 1496
28 1586
28 1589
28 1592
28 2919
28 2928
28 2937
28 4395
28 4422
28 4449
29 1530
29 1531
29 1532
29 1540
29 1543
29 1546
29 2948
29 2957
29 2966
29 4395
29 4422
29 4449
30 1497
30 1498
30 1499
30 1549
30 1552
30 1555
30 2974
30 2983
30 2992
30 4400
30 4427
30 4454
31 1533
31 1534
31 1535
31 1611
31 1614
31 1617
31 2919
31 2928
31 2937
31 4400
31 4427
31 4454
32 1461
32 1462
32 1463
32 1568
32 1571
32 1574
32 2948
32 2957
32 2966
32 4400
32 4427
32 4454
33 1536
33 1537
33 1538
33 1577
33 1580
33 1583
33 2974
33 2983
33 2992
33 4393
33 4420
33 4447
34 1464
34 1465
34 1466
34 1558
34 1561
34 1564
34 2919
34 2928
34 2937
34 4393
34 4420
34 4447
35 1500
35 1501
35 1502
35 1593
35 1596
35 1599
35 2948
35 2957
35 2966
35 4393
35 4420
35 4447
36 1470
36 1471
36 1472
36 1602
36 1605
36 1608
36 2978
36 2987
36 2996
36 4375
36 4402
36 4429
37 1506
37 1507
37 1508
37 1586
37 1589
37 1592
37 2923
37 2932
37 2941
37 4375
37 4402
37 4429
38 1515
38 1516
38 1517
38 1540
38 1543
38 1546
38 2949
38 2958
38 2967
38 4375
38 4402
38 4429
39 1509
39 1510
39 1511
39 1549
39 1552
39 1555
39 2978
39 2987
39 2996
39 4377
39 4404
39 4431
40 1518
40 1519
40 1520
40 1611
40 1614
40 1617
40 2923
40 2932
40 2941
40 4377
40 4404
40 4431
41 1473
41 1474
41 1475
41 1568
41 1571
41 1574
41 2949
41 2958
41 2967
41 4377
41 4404
41 4431
42 1512
42 1513
42 1514
42 1577
42 1580
42 1583
42 2978
42 2987
42 2996
42 4382
42 4409
42 4436
43 1467
43 1468
43 1469
43 1558
43 1561
43 1564
43 2923
43 2932
43 2941
43 4382
43 4409
43 4436
44 1503
44 1504
44 1505
44 1593
44 1596
44 1599
44 2949
44 2958
44 2967
44 4382
44 4409
44 4436
45 1482
45 1483
45 1484
45 1602
45 1605
45 1608
45 2970
45 2979
45 2988
45 4391
45 4418
45 4445
46 1491
46 1492
46 1493
46 1586
46 1589
46 1592
46 2918
46 2927
46 2936
46 4391
46 4418
46 4445
47 1527
47 1528
47 1529
47 1540
47 1543
47 1546
47 2944
47 2953
47 2962
47 4391
47 4418
47 4445
48 1485
48 1486
48 1487
48 1549
48 1552
48 1555
48 2970
48 2979
48 2988
48 4384
48 4411
48 4438
49 1521
49 1522
49 1523
49 1611
49 1614
49 1617
49 2918
49 2927
49 2936
49 4384
49 4411
49 4438
50 1476
50 1477
50 1478
50 1568
50 1571
50 1574
50 2944
50 2953
50 2962
50 4384
50 4411
50 4438
51 1524
51 1525
51 1526
51 1577
51 1580
51 1583
51 2970
51 2979
51 2988
51 4386
51 4413
51 4440
52 1479
52 1480
52 1481
52 1558
52 1561
52 1564
52 2918
52 2927
52 2936
52 4386
52 4413
52 4440
53 1488
53 1489
53 1490
53 1593
53 1596
53 1599
53 2944
53 2953
53 2962
53 4386
53 4413
53 4440
54 1458
54 1459
54 1460
54 1584
54 1587
54 1590
54 2951
54 2960
54 2969
54 4389
54 4416
54 4443
55 1494
55 1495
55 1496
55 1541
55 1544
55 1547
55 2977
55 2986
55 2995
55 4389
55 4416
55 4443
56 1530
56 1531
56 1532
56 1603
56 1606
56 1609
56 2922
56 2931
56 2940
56 4389
56 4416
56 4443
57 1497
57 1498
57 1499
57 1612
57 1615
57 1618
57 2951
57 2960
57 2969
57 4385
57 4412
57 4439
58 1533
58 1534
58 1535
58 1566
58 1569
58 1572
58 2977
58 2986
58 2995
58 4385
58 4412
58 4439
59 1461
59 1462
59 1463
59 1550
59 1553
59 1556
59 2922
59 2931
59 2940
59 4385
59 4412
59 4439
60 1536
60 1537
60 1538
60 1559
60 1562
60 1565
60 2951
60 2960
60 2969
60 4387
60 4414
60 4441
61 1464
61 1465
61 1466
61 1594
61 1597
61 1600
61 2977
61 2986
61 2995
61 4387
61 4414
61 4441
62 1500
62 1501
62 1502
62 1575
62 1578
62 1581
62 2922
62 2931
62 2940
62 4387
62 4414
62 4441
63 1470
63 1471
63 1472
63 1584
63 1587
63 1590
63 2943
63 2952
63 2961
63 4396
63 4423
63 4450
64 1506
64 1507
64 1508
64 1541
64 1544
64 1547
64 2972
64 2981
64 2990
64 4396
64 4423
64 4450
65 1515
65 1516
65 1517
65 1603
65 1606
65 1609
65 2917
65 2926
65 2935
65 4396
65 4423
65 4450
66 1509
66 1510
66 1511
66 1612
66 1615
66 1618
66 2943
66 2952
66 2961
66 4398
66 4425
66 4452
67 1518
67 1519
67 1520
67 1566
67 1569
67 1572
67 2972
67 2981
67 2990
67 4398
67 4425
67 4452
68 1473
68 1474
68 1475
68 1550
68 1553
68 1556
68 2917
68 2926
68 2935
68 4398
68 4425
68 4452
69 1512
69 1513
69 1514
69 1559
69 1562
69 1565
69 2943
69 2952
69 2961
69 4394
69 4421
69 4448
70 1467
70 1468
70 1469
70 1594
70 1597
70 1600
70 2972
70 2981
70 2990
70 4394
70 4421
70 4448
71 1503
71 1504
71 1505
71 1575
71 1578
71 1581
71 2917
71 2926
71 2935
71 4394
71 4421
71 4448
72 1482
72 1483
72 1484
72 1584
72 1587
72 1590
72 2947
72 2956
72 2965
72 4376
72 4403
72 4430
73 1491
73 1492
73 1493
73 1541
73 1544
73 1547
73 2973
73 2982
73 2991
73 4376
73 4403
73 4430
74 1527
74 1528
74 1529
74 1603
74 1606
74 1609
74 2921
74 2930
74 2939
74 4376
74 4403
74 4430
75 1485
75 1486
75 1487
75 1612
75 1615
75 1618
75 2947
75 2956
75 2965
75 4378
75 4405
75 4432
76 1521
76 1522
76 1523
76 1566
76 1569
76 1572
76 2973
76 2982
76 2991
76 4378
76 4405
76 4432
77 1476
77 1477
77 1478
77 1550
77 1553
77 1556
77 2921
77 2930
77 2939
77 4378
77 4405
77 4432
78 1524
78 1525
78 1526
78 1559
78 1562
78 1565
78 2947
78 2956
78 2965
78 4380
78 4407
78 4434
79 1479
79 1480
79 1481
79 1594
79 1597
79 1600
79 2973
79 2982
79 2991
79 4380
79 4407
79 4434
80 1488
80 1489
80 1490
80 1575
80 1578
80 1581
80 2921
80 2930
80 2939
80 4380
80 4407
80 4434
81 1539
81 1540
81 1541
81 1620
81 1623
81 1626
81 2997
81 3006
81 3015
81 4455
81 4482
81 4509
82 1575
82 1576
82 1577
82 1685
82 1688
82 1691
82 3026
82 3035
82 3044
82 4455
82 4482
82 4509
83 1611
83 1612
83 1613
83 1666
83 1669
83 1672
83 3052
83 3061
83 3070
83 4455
83 4482
83 4509
84 1578
84 1579
84 1580
84 1648
84 1651
84 1654
84 2997
84 3006
84 3015
84 4460
84 4487
84 4514
85 1614
85 1615
85 1616
85 1629
85 1632
85 1635
85 3026
85 3035
85 3044
85 4460
85 4487
85 4514
86 1542
86 1543
86 1544
86 1694
86 1697
86 1700
86 3052
86 3061
86 3070
86 4460
86 4487
86 4514
87 1617
87 1618
87 1619
87 1676
87 1679
87 1682
87 2997
87 3006
87 3015
87 4462
87 4489
87 4516
88 1545
88 1546
88 1547
88 1657
88 1660
88 1663
88 3026
88 3035
88 3044
88 4462
88 4489
88 4516
89 1581
89 1582
89 1583
89 1638
89 1641
89 1644
89 3052
89 3061
89 3070
89 4462
89 4489
89 4516
90 1551
90 1552
90 1553
90 1620
90 1623
90 1626
90 3001
90 3010
90 3019
90 4471
90 4498
90 4525
91 1587
91 1588
91 1589
91 1685
91 1688
91 1691
91 3027
91 3036
91 3045
91 4471
91 4498
91 4525
92 1596
92 1597
92 1598
92 1666
92 1669
92 1672
92 3056
92 3065
92 3074
92 4471
92 4498
92 4525
93 1590
93 1591
93 1592
93 1648
93 1651
93 1654
93 3001
93 3010
93 3019
93 4464
93 4491
93 4518
94 1599
94 1600
94 1601
94 1629
94 1632
94 1635
94 3027
94 3036
94 3045
94 4464
94 4491
94 4518
95 1554
95 1555
95 1556
95 1694
95 1697
95 1700
95 3056
95 3065
95 3074
95 4464
95 4491
95 4518
96 1593
96 1594
96 1595
96 1676
96 1679
96 1682
96 3001
96 3010
96 3019
96 4469
96 4496
96 4523
97 1548
97 1549
97 1550
97 1657
97 1660
97 1663
97 3027
97 3036
97 3045
97 4469
97 4496
97 4523
98 1584
98 1585
98 1586
98 1638
98 1641
98 1644
98 3056
98 3065
98 3074
98 4469
98 4496
98 4523
99 1563
99 1564
99 1565
99 1620
99 1623
99 1626
99 3005
99 3014
99 3023
99 4478
99 4505
99 4532
100 1572
100 1573
100 1574
100 1685
100 1688
100 1691
100 3031
100 3040
100 3049
100 4478
100 4505
100 4532
101 1608
101 1609
101 1610
101 1666
101 1669
101 1672
101 3057
101 3066
101 3075
101 4478
101 4505
101 4532
102 1566
102 1567
102 1568
102 1648
102 1651
102 1654
102 3005
102 3014
102 3023
102 4480
102 4507
102 4534
103 1602
103 1603
103 1604
103 1629
103 1632
103 1635
103 3031
103 3040
103 3049
103 4480
103 4507
103 4534
104 1557
104 1558
104 1559
104 1694
104 1697
104 1700
104 3057
104 3066
104 3075
104 4480
104 4507
104 4534
105 1605
105 1606
105 1607
105 1676
105 1679
105 1682
105 3005
105 3014
105 3023
105 4473
105 4500
105 4527
106 1560
106 1561
106 1562
106 1657
106 1660
106 1663
106 3031
106 3040
106 3049
106 4473
106 4500
106 4527
107 1569
107 1570
107 1571
107 1638
107 1641
107 1644
107 3057
107 3066
107 3075
107 4473
107 4500
107 4527
108 1539
108 1540
108 1541
108 1683
108 1686
108 1689
108 3055
108 3064
108 3073
108 4476
108 4503
108 4530
109 1575
109 1576
109 1577
109 1667
109 1670
109 1673
109 3000
109 3009
109 3018
109 4476
109 4503
109 4530
110 1611
110 1612
110 1613
110 1621
110 1624
110 1627
110 3029
110 3038
110 3047
110 4476
110 4503
110 4530
111 1578
111 1579
111 1580
111 1630
111 1633
111 1636
111 3055
111 3064
111 3073
111 4481
111 4508
111 4535
112 1614
112 1615
112 1616
112 1692
112 1695
112 1698
112 3000
112 3009
112 3018
112 4481
112 4508
112 4535
113 1542
113 1543
113 1544
113 1649
113 1652
113 1655
113 3029
113 3038
113 3047
113 4481
113 4508
113 4535
114 1617
114 1618
114 1619
114 1658
114 1661
114 1664
114 3055
114 3064
114 3073
114 4474
114 4501
114 4528
115 1545
115 1546
115 1547
115 1639
115 1642
115 1645
115 3000
115 3009
115 3018
115 4474
115 4501
115 4528
116 1581
116 1582
116 1583
116 1674
116 1677
116 1680
116 3029
116 3038
116 3047
116 4474
116 4501
116 4528
117 1551
117 1552
117 1553
117 1683
117 1686
117 1689
117 3059
117 3068
117 3077
117 4456
117 4483
117 4510
118 1587
118 1588
118 1589
118 1667
118 1670
118 1673
118 3004
118 3013
118 3022
118 4456
118 4483
118 4510
119 1596
119 1597
119 1598
119 1621
119 1624
119 1627
119 3030
119 3039
119 3048
119 4456
119 4483
119 4510
120 1590
120 1591
120 1592
120 1630
120 1633
120 1636
120 3059
120 3068
120 3077
120 4458
120 4485
120 4512
121 1599
121 1600
121 1601
121 1692
121 1695
121 1698
121 3004
121 3013
121 3022
121 4458
121 4485
121 4512
122 1554
122 1555
122 1556
122 1649
122 1652
122 1655
122 3030
122 3039
122 3048
122 4458
122 4485
122 4512
123 1593
123 1594
123 1595
123 1658
123 1661
123 1664
123 3059
123 3068
123 3077
123 4463
123 4490
123 4517
124 1548
124 1549
124 1550
124 1639
124 1642
124 1645
124 3004
124 3013
124 3022
124 4463
124 4490
124 4517
125 1584
125 1585
125 1586
125 1674
125 1677
125 1680
125 3030
125 3039
125 3048
125 4463
125 4490
125 4517
126 1563
126 1564
126 1565
126 1683
126 1686
126 1689
126 3051
126 3060
126 3069
126 4472
126 4499
126 4526
127 1572
127 1573
127 1574
127 1667
127 1670
127 1673
127 2999
127 3008
127 3017
127 4472
127 4499
127 4526
128 1608
128 1609
128 1610
128 1621
128 1624
128 1627
128 3025
128 3034
128 3043
128 4472
128 4499
128 4526
129 1566
129 1567
129 1568
129 1630
129 1633
129 1636
129 3051
129 3060
129 3069
129 4465
129 4492
129 4519
130 1602
130 1603
130 1604
130 1692
130 1695
130 1698
130 2999
130 3008
130 3017
130 4465
130 4492
130 4519
131 1557
131 1558
131 1559
131 1649
131 1652
131 1655
131 3025
131 3034
131 3043
131 4465
131 4492
131 4519
132 1605
132 1606
132 1607
132 1658
132 1661
132 1664
132 3051
132 3060
132 3069
132 4467
132 4494
132 4521
133 1560
133 1561
133 1562
133 1639
133 1642
133 1645
133 2999
133 3008
133 3017
133 4467
133 4494
133 4521
134 1569
134 1570
134 1571
134 1674
134 1677
134 1680
134 3025
134 3034
134 3043
134 4467
134 4494
134 4521
135 1539
135 1540
135 1541
135 1665
135 1668
135 1671
135 3032
135 3041
135 3050
135 4470
135 4497
135 4524
136 1575
136 1576
136 1577
136 1622
136 1625
136 1628
136 3058
136 3067
136 3076
136 4470
136 4497
136 4524
137 1611
137 1612
137 1613
137 1684
137 1687
137 1690
137 3003
137 3012
137 3021
137 4470
137 4497
137 4524
138 1578
138 1579
138 1580
138 1693
138 1696
138 1699
138 3032
138 3041
138 3050
138 4466
138 4493
138 4520
139 1614
139 1615
139 1616
139 1647
139 1650
139 1653
139 3058
139 3067
139 3076
139 4466
139 4493
139 4520
140 1542
140 1543
140 1544
140 1631
140 1634
140 1637
140 3003
140 3012
140 3021
140 4466
140 4493
140 4520
141 1617
141 1618
141 1619
141 1640
141 1643
141 1646
141 3032
141 3041
141 3050
141 4468
141 4495
141 4522
142 1545
142 1546
142 1547
142 1675
142 1678
142 1681
142 3058
142 3067
142 3076
142 4468
142 4495
142 4522
143 1581
143 1582
143 1583
143 1656
143 1659
143 1662
143 3003
143 3012
143 3021
143 4468
143 4495
143 4522
144 1551
144 1552
144 1553
144 1665
144 1668
144 1671
144 3024
144 3033
144 3042
144 4477
144 4504
144 4531
145 1587
145 1588
145 1589
145 1622
145 1625
145 1628
145 3053
145 3062
145 3071
145 4477
145 4504
145 4531
146 1596
146 1597
146 1598
146 1684
146 1687
146 1690
146 2998
146 3007
146 3016
146 4477
146 4504
146 4531
147 1590
147 1591
147 1592
147 1693
147 1696
147 1699
147 3024
147 3033
147 3042
147 4479
147 4506
147 4533
148 1599
148 1600
148 1601
148 1647
148 1650
148 1653
148 3053
148 3062
148 3071
148 4479
148 4506
148 4533
149 1554
149 1555
149 1556
149 1631
149 1634
149 1637
149 2998
149 3007
149 3016
149 4479
149 4506
149 4533
150 1593
150 1594
150 1595
150 1640
150 1643
150 1646
150 3024
150 3033
150 3042
150 4475
150 4502
150 4529
151 1548
151 1549
151 1550
151 1675
151 1678
151 1681
151 3053
151 3062
151 3071
151 4475
151 4502
151 4529
152 1584
152 1585
152 1586
152 1656
152 1659
152 1662
152 2998
152 3007
152 3016
152 4475
152 4502
152 4529
153 1563
153 1564
153 1565
153 1665
153 1668
153 1671
153 3028
153 3037
153 3046
153 4457
153 4484
153 4511
154 1572
154 1573
154 1574
154 1622
154 1625
154 1628
154 3054
154 3063
154 3072
154 4457
154 4484
154 4511
155 1608
155 1609
155 1610
155 1684
155 1687
155 1690
155 3002
155 3011
155 3020
155 4457
155 4484
155 4511
156 1566
156 1567
156 1568
156 1693
156 1696
156 1699
156 3028
156 3037
156 3046
156 4459
156 4486
156 4513
157 1602
157 1603
157 1604
157 1647
157 1650
157 1653
157 3054
157 3063
157 3072
157 4459
157 4486
157 4513
158 1557
158 1558
158 1559
158 1631
158 1634
158 1637
158 3002
158 3011
158 3020
158 4459
158 4486
158 4513
159 1605
159 1606
159 1607
159 1640
159 1643
159 1646
159 3028
159 3037
159 3046
159 4461
159 4488
159 4515
160 1560
160 1561
160 1562
160 1675
160 1678
160 1681
160 3054
160 3063
160 3072
160 4461
160 4488
160 4515
161 1569
161 1570
161 1571
161 1656
161 1659
161 1662
161 3002
161 3011
161 3020
161 4461
161 4488
161 4515
162 1620
162 1621
162 1622
162 1701
162 1704
162 1707
162 3078
162 3087
162 3096
162 4536
162 4563
162 4590
163 1656
163 1657
163 1658
163 1766
163 1769
163 1772
163 3107
163 3116
163 3125
163 4536
163 4563
163 4590
164 1692
164 1693
164 1694
164 1747
164 1750
164 1753
164 3133
164 3142
164 3151
164 4536
164 4563
164 4590
165 1659
165 1660
165 1661
165 1729
165 1732
165 1735
165 3078
165 3087
165 3096
165 4541
165 4568
165 4595
166 1695
166 1696
166 1697
166 1710
166 1713
166 1716
166 3107
166 3116
166 3125
166 4541
166 4568
166 4595
167 1623
167 1624
167 1625
167 1775
167 1778
167 1781
167 3133
167 3142
167 3151
167 4541
167 4568
167 4595
168 1698
168 1699
168 1700
168 1757
168 1760
168 1763
168 3078
168 3087
168 3096
168 4543
168 4570
168 4597
169 1626
169 1627
169 1628
169 1738
169 1741
169 1744
169 3107
169 3116
169 3125
169 4543
169 4570
169 4597
170 1662
170 1663
170 1664
170 1719
170 1722
170 1725
170 3133
170 3142
170 3151
170 4543
170 4570
170 4597
171 1632
171 1633
171 1634
171 1701
171 1704
171 1707
171 3082
171 3091
171 3100
171 4552
171 4579
171 4606
172 1668
172 1669
172 1670
172 1766
172 1769
172 1772
172 3108
172 3117
172 3126
172 4552
172 4579
172 4606
173 1677
173 1678
173 1679
173 1747
173 1750
173 1753
173 3137
173 3146
173 3155
173 4552
173 4579
173 4606
174 1671
174 1672
174 1673
174 1729
174 1732
174 1735
174 3082
174 3091
174 3100
174 4545
174 4572
174 4599
175 1680
175 1681
175 1682
175 1710
175 1713
175 1716
175 3108
175 3117
175 3126
175 4545
175 4572
175 4599
176 1635
176 1636
176 1637
176 1775
176 1778
176 1781
176 3137
176 3146
176 3155
176 4545
176 4572
176 4599
177 1674
177 1675
177 1676
177 1757
177 1760
177 1763
177 3082
177 3091
177 3100
177 4550
177 4577
177 4604
178 1629
178 1630
178 1631
178 1738
178 1741
178 1744
178 3108
178 3117
178 3126
178 4550
178 4577
178 4604
179 1665
179 1666
179 1667
179 1719
179 1722
179 1725
179 3137
179 3146
179 3155
179 4550
179 4577
179 4604
180 1644
180 1645
180 1646
180 1701
180 1704
180 1707
180 3086
180 3095
180 3104
180 4559
180 4586
180 4613
181 1653
181 1654
181 1655
181 1766
181 1769
181 1772
181 3112
181 3121
181 3130
181 4559
181 4586
181 4613
182 1689
182 1690
182 1691
182 1747
182 1750
182 1753
182 3138
182 3147
182 3156
182 4559
182 4586
182 4613
183 1647
183 1648
183 1649
183 1729
183 1732
183 1735
183 3086
183 3095
183 3104
183 4561
183 4588
183 4615
184 1683
184 1684
184 1685
184 1710
184 1713
184 1716
184 3112
184 3121
184 3130
184 4561
184 4588
184 4615
185 1638
185 1639
185 1640
185 1775
185 1778
185 1781
185 3138
185 3147
185 3156
185 4561
185 4588
185 4615
186 1686
186 1687
186 1688
186 1757
186 1760
186 1763
186 3086
186 3095
186 3104
186 4554
186 4581
186 4608
187 1641
187 1642
187 1643
187 1738
187 1741
187 1744
187 3112
187 3121
187 3130
187 4554
187 4581
187 4608
188 1650
188 1651
188 1652
188 1719
188 1722
188 1725
188 3138
188 3147
188 3156
188 4554
188 4581
188 4608
189 1620
189 1621
189 1622
189 1764
189 1767
189 1770
189 3136
189 3145
189 3154
189 4557
189 4584
189 4611
190 1656
190 1657
190 1658
190 1748
190 1751
190 1754
190 3081
190 3090
190 3099
190 4557
190 4584
190 4611
191 1692
191 1693
191 1694
191 1702
191 1705
191 1708
191 3110
191 3119
191 3128
191 4557
191 4584
191 4611
192 1659
192 1660
192 1661
192 1711
192 1714
192 1717
192 3136
192 3145
192 3154
192 4562
192 4589
192 4616
193 1695
193 1696
193 1697
193 1773
193 1776
193 1779
193 3081
193 3090
193 3099
193 4562
193 4589
193 4616
194 1623
194 1624
194 1625
194 1730
194 1733
194 1736
194 3110
194 3119
194 3128
194 4562
194 4589
194 4616
195 1698
195 1699
195 1700
195 1739
195 1742
195 1745
195 3136
195 3145
195 3154
195 4555
195 4582
195 4609
196 1626
196 1627
196 1628
196 1720
196 1723
196 1726
196 3081
196 3090
196 3099
196 4555
196 4582
196 4609
197 1662
197 1663
197 1664
197 1755
197 1758
197 1761
197 3110
197 3119
197 3128
197 4555
197 4582
197 4609
198 1632
198 1633
198 1634
198 1764
198 1767
198 1770
198 3140
198 3149
198 3158
198 4537
198 4564
198 4591
199 1668
199 1669
199 1670
199 1748
199 1751
199 1754
199 3085
199 3094
199 3103
199 4537
199 4564
199 4591
200 1677
200 1678
200 1679
200 1702
200 1705
200 1708
200 3111
200 3120
200 3129
200 4537
200 4564
200 4591
201 1671
201 1672
201 1673
201 1711
201 1714
201 1717
201 3140
201 3149
201 3158
201 4539
201 4566
201 4593
202 1680
202 1681
202 1682
202 1773
202 1776
202 1779
202 3085
202 3094
202 3103
202 4539
202 4566
202 4593
203 1635
203 1636
203 1637
203 1730
203 1733
203 1736
203 3111
203 3120
203 3129
203 4539
203 4566
203 4593
204 1674
204 1675
204 1676
204 1739
204 1742
204 1745
204 3140
204 3149
204 3158
204 4544
204 4571
204 4598
205 1629
205 1630
205 1631
205 1720
205 1723
205 1726
205 3085
205 3094
205 3103
205 4544
205 4571
205 4598
206 1665
206 1666
206 1667
206 1755
206 1758
206 1761
206 3111
206 3120
206 3129
206 4544
206 4571
206 4598
207 1644
207 1645
207 1646
207 1764
207 1767
207 1770
207 3132
207 3141
207 3150
207 4553
207 4580
207 4607
208 1653
208 1654
208 1655
208 1748
208 1751
208 1754
208 3080
208 3089
208 3098
208 4553
208 4580
208 4607
209 1689
209 1690
209 1691
209 1702
209 1705
209 1708
209 3106
209 3115
209 3124
209 4553
209 4580
209 4607
210 1647
210 1648
210 1649
210 1711
210 1714
210 1717
210 3132
210 3141
210 3150
210 4546
210 4573
210 4600
211 1683
211 1684
211 1685
211 1773
211 1776
211 1779
211 3080
211 3089
211 3098
211 4546
211 4573
211 4600
212 1638
212 1639
212 1640
212 1730
212 1733
212 1736
212 3106
212 3115
212 3124
212 4546
212 4573
212 4600
213 1686
213 1687
213 1688
213 1739
213 1742
213 1745
213 3132
213 3141
213 3150
213 4548
213 4575
213 4602
214 1641
214 1642
214 1643
214 1720
214 1723
214 1726
214 3080
214 3089
214 3098
214 4548
214 4575
214 4602
215 1650
215 1651
215 1652
215 1755
215 1758
215 1761
215 3106
215 3115
215 3124
215 4548
215 4575
215 4602
216 1620
216 1621
216 1622
216 1746
216 1749
216 1752
216 3113
216 3122
216 3131
216 4551
216 4578
216 4605
217 1656
217 1657
217 1658
217 1703
217 1706
217 1709
217 3139
217 3148
217 3157
217 4551
217 4578
217 4605
218 1692
218 1693
218 1694
218 1765
218 1768
218 1771
218 3084
218 3093
218 3102
218 4551
218 4578
218 4605
219 1659
219 1660
219 1661
219 1774
219 1777
219 1780
219 3113
219 3122
219 3131
219 4547
219 4574
219 4601
220 1695
220 1696
220 1697
220 1728
220 1731
220 1734
220 3139
220 3148
220 3157
220 4547
220 4574
220 4601
221 1623
221 1624
221 1625
221 1712
221 1715
221 1718
221 3084
221 3093
221 3102
221 4547
221 4574
221 4601
222 1698
222 1699
222 1700
222 1721
222 1724
222 1727
222 3113
222 3122
222 3131
222 4549
222 4576
222 4603
223 1626
223 1627
223 1628
223 1756
223 1759
223 1762
223 3139
223 3148
223 3157
223 4549
223 4576
223 4603
224 1662
224 1663
224 1664
224 1737
224 1740
224 1743
224 3084
224 3093
224 3102
224 4549
224 4576
224 4603
225 1632
225 1633
225 1634
225 1746
225 1749
225 1752
225 3105
225 3114
225 3123
225 4558
225 4585
225 4612
226 1668
226 1669
226 1670
226 1703
226 1706
226 1709
226 3134
226 3143
226 3152
226 4558
226 4585
226 4612
227 1677
227 1678
227 1679
227 1765
227 1768
227 1771
227 3079
227 3088
227 3097
227 4558
227 4585
227 4612
228 1671
228 1672
228 1673
228 1774
228 1777
228 1780
228 3105
228 3114
228 3123
228 4560
228 4587
228 4614
229 1680
229 1681
229 1682
229 1728
229 1731
229 1734
229 3134
229 3143
229 3152
229 4560
229 4587
229 4614
230 1635
230 1636
230 1637
230 1712
230 1715
230 1718
230 3079
230 3088
230 3097
230 4560
230 4587
230 4614
231 1674
231 1675
231 1676
231 1721
231 1724
231 1727
231 3105
231 3114
231 3123
231 4556
231 4583
231 4610
232 1629
232 1630
232 1631
232 1756
232 1759
232 1762
232 3134
232 3143
232 3152
232 4556
232 4583
232 4610
233 1665
233 1666
233 1667
233 1737
233 1740
233 1743
233 3079
233 3088
233 3097
233 4556
233 4583
233 4610
234 1644
234 1645
234 1646
234 1746
234 1749
234 1752
234 3109
234 3118
234 3127
234 4538
234 4565
234 4592
235 1653
235 1654
235 1655
235 1703
235 1706
235 1709
235 3135
235 3144
235 3153
235 4538
235 4565
235 4592
236 1689
236 1690
236 1691
236 1765
236 1768
236 1771
236 3083
236 3092
236 3101
236 4538
236 4565
236 4592
237 1647
237 1648
237 1649
237 1774
237 1777
237 1780
237 3109
237 3118
237 3127
237 4540
237 4567
237 4594
238 1683
238 1684
238 1685
238 1728
238 1731
238 1734
238 3135
238 3144
238 3153
238 4540
238 4567
238 4594
239 1638
239 1639
239 1640
239 1712
239 1715
239 1718
239 3083
239 3092
239 3101
239 4540
239 4567
239 4594
240 1686
240 1687
240 1688
240 1721
240 1724
240 1727
240 3109
240 3118
240 3127
240 4542
240 4569
240 4596
241 1641
241 1642
241 1643
241 1756
241 1759
241 1762
241 3135
241 3144
241 3153
241 4542
241 4569
241 4596
242 1650
242 1651
242 1652
242 1737
242 1740
242 1743
242 3083
242 3092
242 3101
242 4542
242 4569
242 4596
243 1701
243 1702
243 1703
243 1782
243 1785
243 1788
243 3159
243 3168
243 3177
243 4617
243 4644
243 4671
244 1737
244 1738
244 1739
244 1847
244 1850
244 1853
244 3188
244 3197
244 3206
244 4617
244 4644
244 4671
245 1773
245 1774
245 1775
245 1828
245 1831
245 1834
245 3214
245 3223
245 3232
245 4617
245 4644
245 4671
246 1740
246 1741
246 1742
246 1810
246 1813
246 1816
246 3159
246 3168
246 3177
246 4622
246 4649
246 4676
247 1776
247 1777
247 1778
247 1791
247 1794
247 1797
247 3188
247 3197
247 3206
247 4622
247 4649
247 4676
248 1704
248 1705
248 1706
248 1856
248 1859
248 1862
248 3214
248 3223
248 3232
248 4622
248 4649
248 4676
249 1779
249 1780
249 1781
249 1838
249 1841
249 1844
249 3159
249 3168
249 3177
249 4624
249 4651
249 4678
250 1707
250 1708
250 1709
250 1819
250 1822
250 1825
250 3188
250 3197
250 3206
250 4624
250 4651
250 4678
251 1743
251 1744
251 1745
251 1800
251 1803
251 1806
251 3214
251 3223
251 3232
251 4624
251 4651
251 4678
252 1713
252 1714
252 1715
252 1782
252 1785
252 1788
252 3163
252 3172
252 3181
252 4633
252 4660
252 4687
253 1749
253 1750
253 1751
253 1847
253 1850
253 1853
253 3189
253 3198
253 3207
253 4633
253 4660
253 4687
254 1758
254 1759
254 1760
254 1828
254 1831
254 1834
254 3218
254 3227
254 3236
254 4633
254 4660
254 4687
255 1752
255 1753
255 1754
255 1810
255 1813
255 1816
255 3163
255 3172
255 3181
255 4626
255 4653
255 4680
256 1761
256 1762
256 1763
256 1791
256 1794
256 1797
256 3189
256 3198
256 3207
256 4626
256 4653
256 4680
257 1716
257 1717
257 1718
257 1856
257 1859
257 1862
257 3218
257 3227
257 3236
257 4626
257 4653
257 4680
258 1755
258 1756
258 1757
258 1838
258 1841
258 1844
258 3163
258 3172
258 3181
258 4631
258 4658
258 4685
259 1710
259 1711
259 1712
259 1819
259 1822
259 1825
259 3189
259 3198
259 3207
259 4631
259 4658
259 4685
260 1746
260 1747
260 1748
260 1800
260 1803
260 1806
260 3218
260 3227
260 3236
260 4631
260 4658
260 4685
261 1725
261 1726
261 1727
261 1782
261 1785
261 1788
261 3167
261 3176
261 3185
261 4640
261 4667
261 4694
262 1734
262 1735
262 1736
262 1847
262 1850
262 1853
262 3193
262 3202
262 3211
262 4640
262 4667
262 4694
263 1770
263 1771
263 1772
263 1828
263 1831
263 1834
263 3219
263 3228
263 3237
263 4640
263 4667
263 4694
264 1728
264 1729
264 1730
264 1810
264 1813
264 1816
264 3167
264 3176
264 3185
264 4642
264 4669
264 4696
265 1764
265 1765
265 1766
265 1791
265 1794
265 1797
265 3193
265 3202
265 3211
265 4642
265 4669
265 4696
266 1719
266 1720
266 1721
266 1856
266 1859
266 1862
266 3219
266 3228
266 3237
266 4642
266 4669
266 4696
267 1767
267 1768
267 1769
267 1838
267 1841
267 1844
267 3167
267 3176
267 3185
267 4635
267 4662
267 4689
268 1722
268 1723
268 1724
268 1819
268 1822
268 1825
268 3193
268 3202
268 3211
268 4635
268 4662
268 4689
269 1731
269 1732
269 1733
269 1800
269 1803
269 1806
269 3219
269 3228
269 3237
269 4635
269 4662
269 4689
270 1701
270 1702
270 1703
270 1845
270 1848
270 1851
270 3217
270 3226
270 3235
270 4638
270 4665
270 4692
271 1737
271 1738
271 1739
271 1829
271 1832
271 1835
271 3162
271 3171
271 3180
271 4638
271 4665
271 4692
272 1773
272 1774
272 1775
272 1783
272 1786
272 1789
272 3191
272 3200
272 3209
272 4638
272 4665
272 4692
273 1740
273 1741
273 1742
273 1792
273 1795
273 1798
273 3217
273 3226
273 3235
273 4643
273 4670
273 4697
274 1776
274 1777
274 1778
274 1854
274 1857
274 1860
274 3162
274 3171
274 3180
274 4643
274 4670
274 4697
275 1704
275 1705
275 1706
275 1811
275 1814
275 1817
275 3191
275 3200
275 3209
275 4643
275 4670
275 4697
276 1779
276 1780
276 1781
276 1820
276 1823
276 1826
276 3217
276 3226
276 3235
276 4636
276 4663
276 4690
277 1707
277 1708
277 1709
277 1801
277 1804
277 1807
277 3162
277 3171
277 3180
277 4636
277 4663
277 4690
278 1743
278 1744
278 1745
278 1836
278 1839
278 1842
278 3191
278 3200
278 3209
278 4636
278 4663
278 4690
279 1713
279 1714
279 1715
279 1845
279 1848
279 1851
279 3221
279 3230
279 3239
279 4618
279 4645
279 4672
280 1749
280 1750
280 1751
280 1829
280 1832
280 1835
280 3166
280 3175
280 3184
280 4618
280 4645
280 4672
281 1758
281 1759
281 1760
281 1783
281 1786
281 1789
281 3192
281 3201
281 3210
281 4618
281 4645
281 4672
282 1752
282 1753
282 1754
282 1792
282 1795
282 1798
282 3221
282 3230
282 3239
282 4620
282 4647
282 4674
283 1761
283 1762
283 1763
283 1854
283 1857
283 1860
283 3166
283 3175
283 3184
283 4620
283 4647
283 4674
284 1716
284 1717
284 1718
284 1811
284 1814
284 1817
284 3192
284 3201
284 3210
284 4620
284 4647
284 4674
285 1755
285 1756
285 1757
285 1820
285 1823
285 1826
285 3221
285 3230
285 3239
285 4625
285 4652
285 4679
286 1710
286 1711
286 1712
286 1801
286 1804
286 1807
286 3166
286 3175
286 3184
286 4625
286 4652
286 4679
287 1746
287 1747
287 1748
287 1836
287 1839
287 1842
287 3192
287 3201
287 3210
287 4625
287 4652
287 4679
288 1725
288 1726
288 1727
288 1845
288 1848
288 1851
288 3213
288 3222
288 3231
288 4634
288 4661
288 4688
289 1734
289 1735
289 1736
289 1829
289 1832
289 1835
289 3161
289 3170
289 3179
289 4634
289 4661
289 4688
290 1770
290 1771
290 1772
290 1783
290 1786
290 1789
290 3187
290 3196
290 3205
290 4634
290 4661
290 4688
291 1728
291 1729
291 1730
291 1792
291 1795
291 1798
291 3213
291 3222
291 3231
291 4627
291 4654
291 4681
292 1764
292 1765
292 1766
292 1854
292 1857
292 1860
292 3161
292 3170
292 3179
292 4627
292 4654
292 4681
293 1719
293 1720
293 1721
293 1811
293 1814
293 1817
293 3187
293 3196
293 3205
293 4627
293 4654
293 4681
294 1767
294 1768
294 1769
294 1820
294 1823
294 1826
294 3213
294 3222
294 3231
294 4629
294 4656
294 4683
295 1722
295 1723
295 1724
295 1801
295 1804
295 1807
295 3161
295 3170
295 3179
295 4629
295 4656
295 4683
296 1731
296 1732
296 1733
296 1836
296 1839
296 1842
296 3187
296 3196
296 3205
296 4629
296 4656
296 4683
297 1701
297 1702
297 1703
297 1827
297 1830
297 1833
297 3194
297 3203
297 3212
297 4632
297 4659
297 4686
298 1737
298 1738
298 1739
298 1784
298 1787
298 1790
298 3220
298 3229
298 3238
298 4632
298 4659
298 4686
299 1773
299 1774
299 1775
299 1846
299 1849
299 1852
299 3165
299 3174
299 3183
299 4632
299 4659
299 4686
300 1740
300 1741
300 1742
300 1855
300 1858
300 1861
300 3194
300 3203
300 3212
300 4628
300 4655
300 4682
301 1776
301 1777
301 1778
301 1809
301 1812
301 1815
301 3220
301 3229
301 3238
301 4628
301 4655
301 4682
302 1704
302 1705
302 1706
302 1793
302 1796
302 1799
302 3165
302 3174
302 3183
302 4628
302 4655
302 4682
303 1779
303 1780
303 1781
303 1802
303 1805
303 1808
303 3194
303 3203
303 3212
303 4630
303 4657
303 4684
304 1707
304 1708
304 1709
304 1837
304 1840
304 1843
304 3220
304 3229
304 3238
304 4630
304 4657
304 4684
305 1743
305 1744
305 1745
305 1818
305 1821
305 1824
305 3165
305 3174
305 3183
305 4630
305 4657
305 4684
306 1713
306 1714
306 1715
306 1827
306 1830
306 1833
306 3186
306 3195
306 3204
306 4639
306 4666
306 4693
307 1749
307 1750
307 1751
307 1784
307 1787
307 1790
307 3215
307 3224
307 3233
307 4639
307 4666
307 4693
308 1758
308 1759
308 1760
308 1846
308 1849
308 1852
308 3160
308 3169
308 3178
308 4639
308 4666
308 4693
309 1752
309 1753
309 1754
309 1855
309 1858
309 1861
309 3186
309 3195
309 3204
309 4641
309 4668
309 4695
310 1761
310 1762
310 1763
310 1809
310 1812
310 1815
310 3215
310 3224
310 3233
310 4641
310 4668
310 4695
311 1716
311 1717
311 1718
311 1793
311 1796
311 1799
311 3160
311 3169
311 3178
311 4641
311 4668
311 4695
312 1755
312 1756
312 1757
312 1802
312 1805
312 1808
312 3186
312 3195
312 3204
312 4637
312 4664
312 4691
313 1710
313 1711
313 1712
313 1837
313 1840
313 1843
313 3215
313 3224
313 3233
313 4637
313 4664
313 4691
314 1746
314 1747
314 1748
314 1818
314 1821
314 1824
314 3160
314 3169
314 3178
314 4637
314 4664
314 4691
315 1725
315 1726
315 1727
315 1827
315 1830
315 1833
315 3190
315 3199
315 3208
315 4619
315 4646
315 4673
316 1734
316 1735
316 1736
316 1784
316 1787
316 1790
316 3216
316 3225
316 3234
316 4619
316 4646
316 4673
317 1770
317 1771
317 1772
317 1846
317 1849
317 1852
317 3164
317 3173
317 3182
317 4619
317 4646
317 4673
318 1728
318 1729
318 1730
318 1855
318 1858
318 1861
318 3190
318 3199
318 3208
318 4621
318 4648
318 4675
319 1764
319 1765
319 1766
319 1809
319 1812
319 1815
319 3216
319 3225
319 3234
319 4621
319 4648
319 4675
320 1719
320 1720
320 1721
320 1793
320 1796
320 1799
320 3164
320 3173
320 3182
320 4621
320 4648
320 4675
321 1767
321 1768
321 1769
321 1802
321 1805
321 1808
321 3190
321 3199
321 3208
321 4623
321 4650
321 4677
322 1722
322 1723
322 1724
322 1837
322 1840
322 1843
322 3216
322 3225
322 3234
322 4623
322 4650
322 4677
323 1731
323 1732
323 1733
323 1818
323 1821
323 1824
323 3164
323 3173
323 3182
323 4623
323 4650
323 4677
324 1782
324 1783
324 1784
324 1863
324 1866
324 1869
324 3240
324 3249
324 3258
324 4698
324 4725
324 4752
325 1818
325 1819
325 1820
325 1928
325 1931
325 1934
325 3269
325 3278
325 3287
325 4698
325 4725
325 4752
326 1854
326 1855
326 1856
326 1909
326 1912
326 1915
326 3295
326 3304
326 3313
326 4698
326 4725
326 4752
327 1821
327 1822
327 1823
327 1891
327 1894
327 1897
327 3240
327 3249
327 3258
327 4703
327 4730
327 4757
328 1857
328 1858
328 1859
328 1872
328 1875
328 1878
328 3269
328 3278
328 3287
328 4703
328 4730
328 4757
329 1785
329 1786
329 1787
329 1937
329 1940
329 1943
329 3295
329 3304
329 3313
329 4703
329 4730
329 4757
330 1860
330 1861
330 1862
330 1919
330 1922
330 1925
330 3240
330 3249
330 3258
330 4705
330 4732
330 4759
331 1788
331 1789
331 1790
331 1900
331 1903
331 1906
331 3269
331 3278
331 3287
331 4705
331 4732
331 4759
332 1824
332 1825
332 1826
332 1881
332 1884
332 1887
332 3295
332 3304
332 3313
332 4705
332 4732
332 4759
333 1794
333 1795
333 1796
333 1863
333 1866
333 1869
333 3244
333 3253
333 3262
333 4714
333 4741
333 4768
334 1830
334 1831
334 1832
334 1928
334 1931
334 1934
334 3270
334 3279
334 3288
334 4714
334 4741
334 4768
335 1839
335 1840
335 1841
335 1909
335 1912
335 1915
335 3299
335 3308
335 3317
335 4714
335 4741
335 4768
336 1833
336 1834
336 1835
336 1891
336 1894
336 1897
336 3244
336 3253
336 3262
336 4707
336 4734
336 4761
337 1842
337 1843
337 1844
337 1872
337 1875
337 1878
337 3270
337 3279
337 3288
337 4707
337 4734
337 4761
338 1797
338 1798
338 1799
338 1937
338 1940
338 1943
338 3299
338 3308
338 3317
338 4707
338 4734
338 4761
339 1836
339 1837
339 1838
339 1919
339 1922
339 1925
339 3244
339 3253
339 3262
339 4712
339 4739
339 4766
340 1791
340 1792
340 1793
340 1900
340 1903
340 1906
340 3270
340 3279
340 3288
340 4712
340 4739
340 4766
341 1827
341 1828
341 1829
341 1881
341 1884
341 1887
341 3299
341 3308
341 3317
341 4712
341 4739
341 4766
342 1806
342 1807
342 1808
342 1863
342 1866
342 1869
342 3248
342 3257
342 3266
342 4721
342 4748
342 4775
343 1815
343 1816
343 1817
343 1928
343 1931
343 1934
343 3274
343 3283
343 3292
343 4721
343 4748
343 4775
344 1851
344 1852
344 1853
344 1909
344 1912
344 1915
344 3300
344 3309
344 3318
344 4721
344 4748
344 4775
345 1809
345 1810
345 1811
345 1891
345 1894
345 1897
345 3248
345 3257
345 3266
345 4723
345 4750
345 4777
346 1845
346 1846
346 1847
346 1872
346 1875
346 1878
346 3274
346 3283
346 3292
346 4723
346 4750
346 4777
347 1800
347 1801
347 1802
347 1937
347 1940
347 1943
347 3300
347 3309
347 3318
347 4723
347 4750
347 4777
348 1848
348 1849
348 1850
348 1919
348 1922
348 1925
348 3248
348 3257
348 3266
348 4716
348 4743
348 4770
349 1803
349 1804
349 1805
349 1900
349 1903
349 1906
349 3274
349 3283
349 3292
349 4716
349 4743
349 4770
350 1812
350 1813
350 1814
350 1881
350 1884
350 1887
350 3300
350 3309
350 3318
350 4716
350 4743
350 4770
351 1782
351 1783
351 1784
351 1926
351 1929
351 1932
351 3298
351 3307
351 3316
351 4719
351 4746
351 4773
352 1818
352 1819
352 1820
352 1910
352 1913
352 1916
352 3243
352 3252
352 3261
352 4719
352 4746
352 4773
353 1854
353 1855
353 1856
353 1864
353 1867
353 1870
353 3272
353 3281
353 3290
353 4719
353 4746
353 4773
354 1821
354 1822
354 1823
354 1873
354 1876
354 1879
354 3298
354 3307
354 3316
354 4724
354 4751
354 4778
355 1857
355 1858
355 1859
355 1935
355 1938
355 1941
355 3243
355 3252
355 3261
355 4724
355 4751
355 4778
356 1785
356 1786
356 1787
356 1892
356 1895
356 1898
356 3272
356 3281
356 3290
356 4724
356 4751
356 4778
357 1860
357 1861
357 1862
357 1901
357 1904
357 1907
357 3298
357 3307
357 3316
357 4717
357 4744
357 4771
358 1788
358 1789
358 1790
358 1882
358 1885
358 1888
358 3243
358 3252
358 3261
358 4717
358 4744
358 4771
359 1824
359 1825
359 1826
359 1917
359 1920
359 1923
359 3272
359 3281
359 3290
359 4717
359 4744
359 4771
360 1794
360 1795
360 1796
360 1926
360 1929
360 1932
360 3302
360 3311
360 3320
360 4699
360 4726
360 4753
361 1830
361 1831
361 1832
361 1910
361 1913
361 1916
361 3247
361 3256
361 3265
361 4699
361 4726
361 4753
362 1839
362 1840
362 1841
362 1864
362 1867
362 1870
362 3273
362 3282
362 3291
362 4699
362 4726
362 4753
363 1833
363 1834
363 1835
363 1873
363 1876
363 1879
363 3302
363 3311
363 3320
363 4701
363 4728
363 4755
364 1842
364 1843
364 1844
364 1935
364 1938
364 1941
364 3247
364 3256
364 3265
364 4701
364 4728
364 4755
365 1797
365 1798
365 1799
365 1892
365 1895
365 1898
365 3273
365 3282
365 3291
365 4701
365 4728
365 4755
366 1836
366 1837
366 1838
366 1901
366 1904
366 1907
366 3302
366 3311
366 3320
366 4706
366 4733
366 4760
367 1791
367 1792
367 1793
367 1882
367 1885
367 1888
367 3247
367 3256
367 3265
367 4706
367 4733
367 4760
368 1827
368 1828
368 1829
368 1917
368 1920
368 1923
368 3273
368 3282
368 3291
368 4706
368 4733
368 4760
369 1806
369 1807
369 1808
369 1926
369 1929
369 1932
369 3294
369 3303
369 3312
369 4715
369 4742
369 4769
370 1815
370 1816
370 1817
370 1910
370 1913
370 1916
370 3242
370 3251
370 3260
370 4715
370 4742
370 4769
371 1851
371 1852
371 1853
371 1864
371 1867
371 1870
371 3268
371 3277
371 3286
371 4715
371 4742
371 4769
372 1809
372 1810
372 1811
372 1873
372 1876
372 1879
372 3294
372 3303
372 3312
372 4708
372 4735
372 4762
373 1845
373 1846
373 1847
373 1935
373 1938
373 1941
373 3242
373 3251
373 3260
373 4708
373 4735
373 4762
374 1800
374 1801
374 1802
374 1892
374 1895
374 1898
374 3268
374 3277
374 3286
374 4708
374 4735
374 4762
375 1848
375 1849
375 1850
375 1901
375 1904
375 1907
375 3294
375 3303
375 3312
375 4710
375 4737
375 4764
376 1803
376 1804
376 1805
376 1882
376 1885
376 1888
376 3242
376 3251
376 3260
376 4710
376 4737
376 4764
377 1812
377 1813
377 1814
377 1917
377 1920
377 1923
377 3268
377 3277
377 3286
377 4710
377 4737
377 4764
378 1782
378 1783
378 1784
378 1908
378 1911
378 1914
378 3275
378 3284
378 3293
378 4713
378 4740
378 4767
379 1818
379 1819
379 1820
379 1865
379 1868
379 1871
379 3301
379 3310
379 3319
379 4713
379 4740
379 4767
380 1854
380 1855
380 1856
380 1927
380 1930
380 1933
380 3246
380 3255
380 3264
380 4713
380 4740
380 4767
381 1821
381 1822
381 1823
381 1936
381 1939
381 1942
381 3275
381 3284
381 3293
381 4709
381 4736
381 4763
382 1857
382 1858
382 1859
382 1890
382 1893
382 1896
382 3301
382 3310
382 3319
382 4709
382 4736
382 4763
383 1785
383 1786
383 1787
383 1874
383 1877
383 1880
383 3246
383 3255
383 3264
383 4709
383 4736
383 4763
384 1860
384 1861
384 1862
384 1883
384 1886
384 1889
384 3275
384 3284
384 3293
384 4711
384 4738
384 4765
385 1788
385 1789
385 1790
385 1918
385 1921
385 1924
385 3301
385 3310
385 3319
385 4711
385 4738
385 4765
386 1824
386 1825
386 1826
386 1899
386 1902
386 1905
386 3246
386 3255
386 3264
386 4711
386 4738
386 4765
387 1794
387 1795
387 1796
387 1908
387 1911
387 1914
387 3267
387 3276
387 3285
387 4720
387 4747
387 4774
388 1830
388 1831
388 1832
388 1865
388 1868
388 1871
388 3296
388 3305
388 3314
388 4720
388 4747
388 4774
389 1839
389 1840
389 1841
389 1927
389 1930
389 1933
389 3241
389 3250
389 3259
389 4720
389 4747
389 4774
390 1833
390 1834
390 1835
390 1936
390 1939
390 1942
390 3267
390 3276
390 3285
390 4722
390 4749
390 4776
391 1842
391 1843
391 1844
391 1890
391 1893
391 1896
391 3296
391 3305
391 3314
391 4722
391 4749
391 4776
392 1797
392 1798
392 1799
392 1874
392 1877
392 1880
392 3241
392 3250
392 3259
392 4722
392 4749
392 4776
393 1836
393 1837
393 1838
393 1883
393 1886
393 1889
393 3267
393 3276
393 3285
393 4718
393 4745
393 4772
394 1791
394 1792
394 1793
394 1918
394 1921
394 1924
394 3296
394 3305
394 3314
394 4718
394 4745
394 4772
395 1827
395 1828
395 1829
395 1899
395 1902
395 1905
395 3241
395 3250
395 3259
395 4718
395 4745
395 4772
396 1806
396 1807
396 1808
396 1908
396 1911
396 1914
396 3271
396 3280
396 3289
396 4700
396 4727
396 4754
397 1815
397 1816
397 1817
397 1865
397 1868
397 1871
397 3297
397 3306
397 3315
397 4700
397 4727
397 4754
398 1851
398 1852
398 1853
398 1927
398 1930
398 1933
398 3245
398 3254
398 3263
398 4700
398 4727
398 4754
399 1809
399 1810
399 1811
399 1936
399 1939
399 1942
399 3271
399 3280
399 3289
399 4702
399 4729
399 4756
400 1845
400 1846
400 1847
400 1890
400 1893
400 1896
400 3297
400 3306
400 3315
400 4702
400 4729
400 4756
401 1800
401 1801
401 1802
401 1874
401 1877
401 1880
401 3245
401 3254
401 3263
401 4702
401 4729
401 4756
402 1848
402 1849
402 1850
402 1883
402 1886
402 1889
402 3271
402 3280
402 3289
402 4704
402 4731
402 4758
403 1803
403 1804
403 1805
403 1918
403 1921
403 1924
403 3297
403 3306
403 3315
403 4704
403 4731
403 4758
404 1812
404 1813
404 1814
404 1899
404 1902
404 1905
404 3245
404 3254
404 3263
404 4704
404 4731
404 4758
405 1863
405 1864
405 1865
405 1944
405 1947
405 1950
405 3321
405 3330
405 3339
405 4779
405 4806
405 4833
406 1899
406 1900
406 1901
406 2009
406 2012
406 2015
406 3350
406 3359
406 3368
406 4779
406 4806
406 4833
407 1935
407 1936
407 1937
407 1990
407 1993
407 1996
407 3376
407 3385
407 3394
407 4779
407 4806
407 4833
408 1902
408 1903
408 1904
408 1972
408 1975
408 1978
408 3321
408 3330
408 3339
408 4784
408 4811
408 4838
409 1938
409 1939
409 1940
409 1953
409 1956
409 1959
409 3350
409 3359
409 3368
409 4784
409 4811
409 4838
410 1866
410 1867
410 1868
410 2018
410 2021
410 2024
410 3376
410 3385
410 3394
410 4784
410 4811
410 4838
411 1941
411 1942
411 1943
411 2000
411 2003
411 2006
411 3321
411 3330
411 3339
411 4786
411 4813
411 4840
412 1869
412 1870
412 1871
412 1981
412 1984
412 1987
412 3350
412 3359
412 3368
412 4786
412 4813
412 4840
413 1905
413 1906
413 1907
413 1962
413 1965
413 1968
413 3376
413 3385
413 3394
413 4786
413 4813
413 4840
414 1875
414 1876
414 1877
414 1944
414 1947
414 1950
414 3325
414 3334
414 3343
414 4795
414 4822
414 4849
415 1911
415 1912
415 1913
415 2009
415 2012
415 2015
415 3351
415 3360
415 3369
415 4795
415 4822
415 4849
416 1920
416 1921
416 1922
416 1990
416 1993
416 1996
416 3380
416 3389
416 3398
416 4795
416 4822
416 4849
417 1914
417 1915
417 1916
417 1972
417 1975
417 1978
417 3325
417 3334
417 3343
417 4788
417 4815
417 4842
418 1923
418 1924
418 1925
418 1953
418 1956
418 1959
418 3351
418 3360
418 3369
418 4788
418 4815
418 4842
419 1878
419 1879
419 1880
419 2018
419 2021
419 2024
419 3380
419 3389
419 3398
419 4788
419 4815
419 4842
420 1917
420 1918
420 1919
420 2000
420 2003
420 2006
420 3325
420 3334
420 3343
420 4793
420 4820
420 4847
421 1872
421 1873
421 1874
421 1981
421 1984
421 1987
421 3351
421 3360
421 3369
421 4793
421 4820
421 4847
422 1908
422 1909
422 1910
422 1962
422 1965
422 1968
422 3380
422 3389
422 3398
422 4793
422 4820
422 4847
423 1887
423 1888
423 1889
423 1944
423 1947
423 1950
423 3329
423 3338
423 3347
423 4802
423 4829
423 4856
424 1896
424 1897
424 1898
424 2009
424 2012
424 2015
424 3355
424 3364
424 3373
424 4802
424 4829
424 4856
425 1932
425 1933
425 1934
425 1990
425 1993
425 1996
425 3381
425 3390
425 3399
425 4802
425 4829
425 4856
426 1890
426 1891
426 1892
426 1972
426 1975
426 1978
426 3329
426 3338
426 3347
426 4804
426 4831
426 4858
427 1926
427 1927
427 1928
427 1953
427 1956
427 1959
427 3355
427 3364
427 3373
427 4804
427 4831
427 4858
428 1881
428 1882
428 1883
428 2018
428 2021
428 2024
428 3381
428 3390
428 3399
428 4804
428 4831
428 4858
429 1929
429 1930
429 1931
429 2000
429 2003
429 2006
429 3329
429 3338
429 3347
429 4797
429 4824
429 4851
430 1884
430 1885
430 1886
430 1981
430 1984
430 1987
430 3355
430 3364
430 3373
430 4797
430 4824
430 4851
431 1893
431 1894
431 1895
431 1962
431 1965
431 1968
431 3381
431 3390
431 3399
431 4797
431 4824
431 4851
432 1863
432 1864
432 1865
432 2007
432 2010
432 2013
432 3379
432 3388
432 3397
432 4800
432 4827
432 4854
433 1899
433 1900
433 1901
433 1991
433 1994
433 1997
433 3324
433 3333
433 3342
433 4800
433 4827
433 4854
434 1935
434 1936
434 1937
434 1945
434 1948
434 1951
434 3353
434 3362
434 3371
434 4800
434 4827
434 4854
435 1902
435 1903
435 1904
435 1954
435 1957
435 1960
435 3379
435 3388
435 3397
435 4805
435 4832
435 4859
436 1938
436 1939
436 1940
436 2016
436 2019
436 2022
436 3324
436 3333
436 3342
436 4805
436 4832
436 4859
437 1866
437 1867
437 1868
437 1973
437 1976
437 1979
437 3353
437 3362
437 3371
437 4805
437 4832
437 4859
438 1941
438 1942
438 1943
438 1982
438 1985
438 1988
438 3379
438 3388
438 3397
438 4798
438 4825
438 4852
439 1869
439 1870
439 1871
439 1963
439 1966
439 1969
439 3324
439 3333
439 3342
439 4798
439 4825
439 4852
440 1905
440 1906
440 1907
440 1998
440 2001
440 2004
440 3353
440 3362
440 3371
440 4798
440 4825
440 4852
441 1875
441 1876
441 1877
441 2007
441 2010
441 2013
441 3383
441 3392
441 3401
441 4780
441 4807
441 4834
442 1911
442 1912
442 1913
442 1991
442 1994
442 1997
442 3328
442 3337
442 3346
442 4780
442 4807
442 4834
443 1920
443 1921
443 1922
443 1945
443 1948
443 1951
443 3354
443 3363
443 3372
443 4780
443 4807
443 4834
444 1914
444 1915
444 1916
444 1954
444 1957
444 1960
444 3383
444 3392
444 3401
444 4782
444 4809
444 4836
445 1923
445 1924
445 1925
445 2016
445 2019
445 2022
445 3328
445 3337
445 3346
445 4782
445 4809
445 4836
446 1878
446 1879
446 1880
446 1973
446 1976
446 1979
446 3354
446 3363
446 3372
446 4782
446 4809
446 4836
447 1917
447 1918
447 1919
447 1982
447 1985
447 1988
447 3383
447 3392
447 3401
447 4787
447 4814
447 4841
448 1872
448 1873
448 1874
448 1963
448 1966
448 1969
448 3328
448 3337
448 3346
448 4787
448 4814
448 4841
449 1908
449 1909
449 1910
449 1998
449 2001
449 2004
449 3354
449 3363
449 3372
449 4787
449 4814
449 4841
450 1887
450 1888
450 1889
450 2007
450 2010
450 2013
450 3375
450 3384
450 3393
450 4796
450 4823
450 4850
451 1896
451 1897
451 1898
451 1991
451 1994
451 1997
451 3323
451 3332
451 3341
451 4796
451 4823
451 4850
452 1932
452 1933
452 1934
452 1945
452 1948
452 1951
452 3349
452 3358
452 3367
452 4796
452 4823
452 4850
453 1890
453 1891
453 1892
453 1954
453 1957
453 1960
453 3375
453 3384
453 3393
453 4789
453 4816
453 4843
454 1926
454 1927
454 1928
454 2016
454 2019
454 2022
454 3323
454 3332
454 3341
454 4789
454 4816
454 4843
455 1881
455 1882
455 1883
455 1973
455 1976
455 1979
455 3349
455 3358
455 3367
455 4789
455 4816
455 4843
456 1929
456 1930
456 1931
456 1982
456 1985
456 1988
456 3375
456 3384
456 3393
456 4791
456 4818
456 4845
457 1884
457 1885
457 1886
457 1963
457 1966
457 1969
457 3323
457 3332
457 3341
457 4791
457 4818
457 4845
458 1893
458 1894
458 1895
458 1998
458 2001
458 2004
458 3349
458 3358
458 3367
458 4791
458 4818
458 4845
459 1863
459 1864
459 1865
459 1989
459 1992
459 1995
459 3356
459 3365
459 3374
459 4794
459 4821
459 4848
460 1899
460 1900
460 1901
460 1946
460 1949
460 1952
460 3382
460 3391
460 3400
460 4794
460 4821
460 4848
461 1935
461 1936
461 1937
461 2008
461 2011
461 2014
461 3327
461 3336
461 3345
461 4794
461 4821
461 4848
462 1902
462 1903
462 1904
462 2017
462 2020
462 2023
462 3356
462 3365
462 3374
462 4790
462 4817
462 4844
463 1938
463 1939
463 1940
463 1971
463 1974
463 1977
463 3382
463 3391
463 3400
463 4790
463 4817
463 4844
464 1866
464 1867
464 1868
464 1955
464 1958
464 1961
464 3327
464 3336
464 3345
464 4790
464 4817
464 4844
465 1941
465 1942
465 1943
465 1964
465 1967
465 1970
465 3356
465 3365
465 3374
465 4792
465 4819
465 4846
466 1869
466 1870
466 1871
466 1999
466 2002
466 2005
466 3382
466 3391
466 3400
466 4792
466 4819
466 4846
467 1905
467 1906
467 1907
467 1980
467 1983
467 1986
467 3327
467 3336
467 3345
467 4792
467 4819
467 4846
468 1875
468 1876
468 1877
468 1989
468 1992
468 1995
468 3348
468 3357
468 3366
468 4801
468 4828
468 4855
469 1911
469 1912
469 1913
469 1946
469 1949
469 1952
469 3377
469 3386
469 3395
469 4801
469 4828
469 4855
470 1920
470 1921
470 1922
470 2008
470 2011
470 2014
470 3322
470 3331
470 3340
470 4801
470 4828
470 4855
471 1914
471 1915
471 1916
471 2017
471 2020
471 2023
471 3348
471 3357
471 3366
471 4803
471 4830
471 4857
472 1923
472 1924
472 1925
472 1971
472 1974
472 1977
472 3377
472 3386
472 3395
472 4803
472 4830
472 4857
473 1878
473 1879
473 1880
473 1955
473 1958
473 1961
473 3322
473 3331
473 3340
473 4803
473 4830
473 4857
474 1917
474 1918
474 1919
474 1964
474 1967
474 1970
474 3348
474 3357
474 3366
474 4799
474 4826
474 4853
475 1872
475 1873
475 1874
475 1999
475 2002
475 2005
475 3377
475 3386
475 3395
475 4799
475 4826
475 4853
476 1908
476 1909
476 1910
476 1980
476 1983
476 1986
476 3322
476 3331
476 3340
476 4799
476 4826
476 4853
477 1887
477 1888
477 1889
477 1989
477 1992
477 1995
477 3352
477 3361
477 3370
477 4781
477 4808
477 4835
478 1896
478 1897
478 1898
478 1946
478 1949
478 1952
478 3378
478 3387
478 3396
478 4781
478 4808
478 4835
479 1932
479 1933
479 1934
479 2008
479 2011
479 2014
479 3326
479 3335
479 3344
479 4781
479 4808
479 4835
480 1890
480 1891
480 1892
480 2017
480 2020
480 2023
480 3352
480 3361
480 3370
480 4783
480 4810
480 4837
481 1926
481 1927
481 1928
481 1971
481 1974
481 1977
481 3378
481 3387
481 3396
481 4783
481 4810
481 4837
482 1881
482 1882
482 1883
482 1955
482 1958
482 1961
482 3326
482 3335
482 3344
482 4783
482 4810
482 4837
483 1929
483 1930
483 1931
483 1964
483 1967
483 1970
483 3352
483 3361
483 3370
483 4785
483 4812
483 4839
484 1884
484 1885
484 1886
484 1999
484 2002
484 2005
484 3378
484 3387
484 3396
484 4785
484 4812
484 4839
485 1893
485 1894
485 1895
485 1980
485 1983
485 1986
485 3326
485 3335
485 3344
485 4785
485 4812
485 4839
486 1944
486 1945
486 1946
486 2025
486 2028
486 2031
486 3402
486 3411
486 3420
486 4860
486 4887
486 4914
487 1980
487 1981
487 1982
487 2090
487 2093
487 2096
487 3431
487 3440
487 3449
487 4860
487 4887
487 4914
488 2016
488 2017
488 2018
488 2071
488 2074
488 2077
488 3457
488 3466
488 3475
488 4860
488 4887
488 4914
489 1983
489 1984
489 1985
489 2053
489 2056
489 2059
489 3402
489 3411
489 3420
489 4865
489 4892
489 4919
490 2019
490 2020
490 2021
490 2034
490 2037
490 2040
490 3431
490 3440
490 3449
490 4865
490 4892
490 4919
491 1947
491 1948
491 1949
491 2099
491 2102
491 2105
491 3457
491 3466
491 3475
491 4865
491 4892
491 4919
492 2022
492 2023
492 2024
492 2081
492 2084
492 2087
492 3402
492 3411
492 3420
492 4867
492 4894
492 4921
493 1950
493 1951
493 1952
493 2062
493 2065
493 2068
493 3431
493 3440
493 3449
493 4867
493 4894
493 4921
494 1986
494 1987
494 1988
494 2043
494 2046
494 2049
494 3457
494 3466
494 3475
494 4867
494 4894
494 4921
495 1956
495 1957
495 1958
495 2025
495 2028
495 2031
495 3406
495 3415
495 3424
495 4876
495 4903
495 4930
496 1992
496 1993
496 1994
496 2090
496 2093
496 2096
496 3432
496 3441
496 3450
496 4876
496 4903
496 4930
497 2001
497 2002
497 2003
497 2071
497 2074
497 2077
497 3461
497 3470
497 3479
497 4876
497 4903
497 4930
498 1995
498 1996
498 1997
498 2053
498 2056
498 2059
498 3406
498 3415
498 3424
498 4869
498 4896
498 4923
499 2004
499 2005
499 2006
499 2034
499 2037
499 2040
499 3432
499 3441
499 3450
499 4869
499 4896
499 4923
500 1959
500 1960
500 1961
500 2099
500 2102
500 2105
500 3461
500 3470
500 3479
500 4869
500 4896
500 4923
501 1998
501 1999
501 2000
501 2081
501 2084
501 2087
501 3406
501 3415
501 3424
501 4874
501 4901
501 4928
502 1953
502 1954
502 1955
502 2062
502 2065
502 2068
502 3432
502 3441
502 3450
502 4874
502 4901
502 4928
503 1989
503 1990
503 1991
503 2043
503 2046
503 2049
503 3461
503 3470
503 3479
503 4874
503 4901
503 4928
504 1968
504 1969
504 1970
504 2025
504 2028
504 2031
504 3410
504 3419
504 3428
504 4883
504 4910
504 4937
505 1977
505 1978
505 1979
505 2090
505 2093
505 2096
505 3436
505 3445
505 3454
505 4883
505 4910
505 4937
506 2013
506 2014
506 2015
506 2071
506 2074
506 2077
506 3462
506 3471
506 3480
506 4883
506 4910
506 4937
507 1971
507 1972
507 1973
507 2053
507 2056
507 2059
507 3410
507 3419
507 3428
507 4885
507 4912
507 4939
508 2007
508 2008
508 2009
508 2034
508 2037
508 2040
508 3436
508 3445
508 3454
508 4885
508 4912
508 4939
509 1962
509 1963
509 1964
509 2099
509 2102
509 2105
509 3462
509 3471
509 3480
509 4885
509 4912
509 4939
510 2010
510 2011
510 2012
510 2081
510 2084
510 2087
510 3410
510 3419
510 3428
510 4878
510 4905
510 4932
511 1965
511 1966
511 1967
511 2062
511 2065
511 2068
511 3436
511 3445
511 3454
511 4878
511 4905
511 4932
512 1974
512 1975
512 1976
512 2043
512 2046
512 2049
512 3462
512 3471
512 3480
512 4878
512 4905
512 4932
513 1944
513 1945
513 1946
513 2088
513 2091
513 2094
513 3460
513 3469
513 3478
513 4881
513 4908
513 4935
514 1980
514 1981
514 1982
514 2072
514 2075
514 2078
514 3405
514 3414
514 3423
514 4881
514 4908
514 4935
515 2016
515 2017
515 2018
515 2026
515 2029
515 2032
515 3434
515 3443
515 3452
515 4881
515 4908
515 4935
516 1983
516 1984
516 1985
516 2035
516 2038
516 2041
516 3460
516 3469
516 3478
516 4886
516 4913
516 4940
517 2019
517 2020
517 2021
517 2097
517 2100
517 2103
517 3405
517 3414
517 3423
517 4886
517 4913
517 4940
518 1947
518 1948
518 1949
518 2054
518 2057
518 2060
518 3434
518 3443
518 3452
518 4886
518 4913
518 4940
519 2022
519 2023
519 2024
519 2063
519 2066
519 2069
519 3460
519 3469
519 3478
519 4879
519 4906
519 4933
520 1950
520 1951
520 1952
520 2044
520 2047
520 2050
520 3405
520 3414
520 3423
520 4879
520 4906
520 4933
521 1986
521 1987
521 1988
521 2079
521 2082
521 2085
521 3434
521 3443
521 3452
521 4879
521 4906
521 4933
522 1956
522 1957
522 1958
522 2088
522 2091
522 2094
522 3464
522 3473
522 3482
522 4861
522 4888
522 4915
523 1992
523 1993
523 1994
523 2072
523 2075
523 2078
523 3409
523 3418
523 3427
523 4861
523 4888
523 4915
524 2001
524 2002
524 2003
524 2026
524 2029
524 2032
524 3435
524 3444
524 3453
524 4861
524 4888
524 4915
525 1995
525 1996
525 1997
525 2035
525 2038
525 2041
525 3464
525 3473
525 3482
525 4863
525 4890
525 4917
526 2004
526 2005
526 2006
526 2097
526 2100
526 2103
526 3409
526 3418
526 3427
526 4863
526 4890
526 4917
527 1959
527 1960
527 1961
527 2054
527 2057
527 2060
527 3435
527 3444
527 3453
527 4863
527 4890
527 4917
528 1998
528 1999
528 2000
528 2063
528 2066
528 2069
528 3464
528 3473
528 3482
528 4868
528 4895
528 4922
529 1953
529 1954
529 1955
529 2044
529 2047
529 2050
529 3409
529 3418
529 3427
529 4868
529 4895
529 4922
530 1989
530 1990
530 1991
530 2079
530 2082
530 2085
530 3435
530 3444
530 3453
530 4868
530 4895
530 4922
531 1968
531 1969
531 1970
531 2088
531 2091
531 2094
531 3456
531 3465
531 3474
531 4877
531 4904
531 4931
532 1977
532 1978
532 1979
532 2072
532 2075
532 2078
532 3404
532 3413
532 3422
532 4877
532 4904
532 4931
533 2013
533 2014
533 2015
533 2026
533 2029
533 2032
533 3430
533 3439
533 3448
533 4877
533 4904
533 4931
534 1971
534 1972
534 1973
534 2035
534 2038
534 2041
534 3456
534 3465
534 3474
534 4870
534 4897
534 4924
535 2007
535 2008
535 2009
535 2097
535 2100
535 2103
535 3404
535 3413
535 3422
535 4870
535 4897
535 4924
536 1962
536 1963
536 1964
536 2054
536 2057
536 2060
536 3430
536 3439
536 3448
536 4870
536 4897
536 4924
537 2010
537 2011
537 2012
537 2063
537 2066
537 2069
537 3456
537 3465
537 3474
537 4872
537 4899
537 4926
538 1965
538 1966
538 1967
538 2044
538 2047
538 2050
538 3404
538 3413
538 3422
538 4872
538 4899
538 4926
539 1974
539 1975
539 1976
539 2079
539 2082
539 2085
539 3430
539 3439
539 3448
539 4872
539 4899
539 4926
540 1944
540 1945
540 1946
540 2070
540 2073
540 2076
540 3437
540 3446
540 3455
540 4875
540 4902
540 4929
541 1980
541 1981
541 1982
541 2027
541 2030
541 2033
541 3463
541 3472
541 3481
541 4875
541 4902
541 4929
542 2016
542 2017
542 2018
542 2089
542 2092
542 2095
542 3408
542 3417
542 3426
542 4875
542 4902
542 4929
543 1983
543 1984
543 1985
543 2098
543 2101
543 2104
543 3437
543 3446
543 3455
543 4871
543 4898
543 4925
544 2019
544 2020
544 2021
544 2052
544 2055
544 2058
544 3463
544 3472
544 3481
544 4871
544 4898
544 4925
545 1947
545 1948
545 1949
545 2036
545 2039
545 2042
545 3408
545 3417
545 3426
545 4871
545 4898
545 4925
546 2022
546 2023
546 2024
546 2045
546 2048
546 2051
546 3437
546 3446
546 3455
546 4873
546 4900
546 4927
547 1950
547 1951
547 1952
547 2080
547 2083
547 2086
547 3463
547 3472
547 3481
547 4873
547 4900
547 4927
548 1986
548 1987
548 1988
548 2061
548 2064
548 2067
548 3408
548 3417
548 3426
548 4873
548 4900
548 4927
549 1956
549 1957
549 1958
549 2070
549 2073
549 2076
549 3429
549 3438
549 3447
549 4882
549 4909
549 4936
550 1992
550 1993
550 1994
550 2027
550 2030
550 2033
550 3458
550 3467
550 3476
550 4882
550 4909
550 4936
551 2001
551 2002
551 2003
551 2089
551 2092
551 2095
551 3403
551 3412
551 3421
551 4882
551 4909
551 4936
552 1995
552 1996
552 1997
552 2098
552 2101
552 2104
552 3429
552 3438
552 3447
552 4884
552 4911
552 4938
553 2004
553 2005
553 2006
553 2052
553 2055
553 2058
553 3458
553 3467
553 3476
553 4884
553 4911
553 4938
554 1959
554 1960
554 1961
554 2036
554 2039
554 2042
554 3403
554 3412
554 3421
554 4884
554 4911
554 4938
555 1998
555 1999
555 2000
555 2045
555 2048
555 2051
555 3429
555 3438
555 3447
555 4880
555 4907
555 4934
556 1953
556 1954
556 1955
556 2080
556 2083
556 2086
556 3458
556 3467
556 3476
556 4880
556 4907
556 4934
557 1989
557 1990
557 1991
557 2061
557 2064
557 2067
557 3403
557 3412
557 3421
557 4880
557 4907
557 4934
558 1968
558 1969
558 1970
558 2070
558 2073
558 2076
558 3433
558 3442
558 3451
558 4862
558 4889
558 4916
559 1977
559 1978
559 1979
559 2027
559 2030
559 2033
559 3459
559 3468
559 3477
559 4862
559 4889
559 4916
560 2013
560 2014
560 2015
560 2089
560 2092
560 2095
560 3407
560 3416
560 3425
560 4862
560 4889
560 4916
561 1971
561 1972
561 1973
561 2098
561 2101
561 2104
561 3433
561 3442
561 3451
561 4864
561 4891
561 4918
562 2007
562 2008
562 2009
562 2052
562 2055
562 2058
562 3459
562 3468
562 3477
562 4864
562 4891
562 4918
563 1962
563 1963
563 1964
563 2036
563 2039
563 2042
563 3407
563 3416
563 3425
563 4864
563 4891
563 4918
564 2010
564 2011
564 2012
564 2045
564 2048
564 2051
564 3433
564 3442
564 3451
564 4866
564 4893
564 4920
565 1965
565 1966
565 1967
565 2080
565 2083
565 2086
565 3459
565 3468
565 3477
565 4866
565 4893
565 4920
566 1974
566 1975
566 1976
566 2061
566 2064
566 2067
566 3407
566 3416
566 3425
566 4866
566 4893
566 4920
567 2025
567 2026
567 2027
567 2106
567 2109
567 2112
567 3483
567 3492
567 3501
567 4941
567 4968
567 4995
568 2061
568 2062
568 2063
568 2171
568 2174
568 2177
568 3512
568 3521
568 3530
568 4941
568 4968
568 4995
569 2097
569 2098
569 2099
569 2152
569 2155
569 2158
569 3538
569 3547
569 3556
569 4941
569 4968
569 4995
570 2064
570 2065
570 2066
570 2134
570 2137
570 2140
570 3483
570 3492
570 3501
570 4946
570 4973
570 5000
571 2100
571 2101
571 2102
571 2115
571 2118
571 2121
571 3512
571 3521
571 3530
571 4946
571 4973
571 5000
572 2028
572 2029
572 2030
572 2180
572 2183
572 2186
572 3538
572 3547
572 3556
572 4946
572 4973
572 5000
573 2103
573 2104
573 2105
573 2162
573 2165
573 2168
573 3483
573 3492
573 3501
573 4948
573 4975
573 5002
574 2031
574 2032
574 2033
574 2143
574 2146
574 2149
574 3512
574 3521
574 3530
574 4948
574 4975
574 5002
575 2067
575 2068
575 2069
575 2124
575 2127
575 2130
575 3538
575 3547
575 3556
575 4948
575 4975
575 5002
576 2037
576 2038
576 2039
576 2106
576 2109
576 2112
576 3487
576 3496
576 3505
576 4957
576 4984
576 5011
577 2073
577 2074
577 2075
577 2171
577 2174
577 2177
577 3513
577 3522
577 3531
577 4957
577 4984
577 5011
578 2082
578 2083
578 2084
578 2152
578 2155
578 2158
578 3542
578 3551
578 3560
578 4957
578 4984
578 5011
579 2076
579 2077
579 2078
579 2134
579 2137
579 2140
579 3487
579 3496
579 3505
579 4950
579 4977
579 5004
580 2085
580 2086
580 2087
580 2115
580 2118
580 2121
580 3513
580 3522
580 3531
580 4950
580 4977
580 5004
581 2040
581 2041
581 2042
581 2180
581 2183
581 2186
581 3542
581 3551
581 3560
581 4950
581 4977
581 5004
582 2079
582 2080
582 2081
582 2162
582 2165
582 2168
582 3487
582 3496
582 3505
582 4955
582 4982
582 5009
583 2034
583 2035
583 2036
583 2143
583 2146
583 2149
583 3513
583 3522
583 3531
583 4955
583 4982
583 5009
584 2070
584 2071
584 2072
584 2124
584 2127
584 2130
584 3542
584 3551
584 3560
584 4955
584 4982
584 5009
585 2049
585 2050
585 2051
585 2106
585 2109
585 2112
585 3491
585 3500
585 3509
585 4964
585 4991
585 5018
586 2058
586 2059
586 2060
586 2171
586 2174
586 2177
586 3517
586 3526
586 3535
586 4964
586 4991
586 5018
587 2094
587 2095
587 2096
587 2152
587 2155
587 2158
587 3543
587 3552
587 3561
587 4964
587 4991
587 5018
588 2052
588 2053
588 2054
588 2134
588 2137
588 2140
588 3491
588 3500
588 3509
588 4966
588 4993
588 5020
589 2088
589 2089
589 2090
589 2115
589 2118
589 2121
589 3517
589 3526
589 3535
589 4966
589 4993
589 5020
590 2043
590 2044
590 2045
590 2180
590 2183
590 2186
590 3543
590 3552
590 3561
590 4966
590 4993
590 5020
591 2091
591 2092
591 2093
591 2162
591 2165
591 2168
591 3491
591 3500
591 3509
591 4959
591 4986
591 5013
592 2046
592 2047
592 2048
592 2143
592 2146
592 2149
592 3517
592 3526
592 3535
592 4959
592 4986
592 5013
593 2055
593 2056
593 2057
593 2124
593 2127
593 2130
593 3543
593 3552
593 3561
593 4959
593 4986
593 5013
594 2025
594 2026
594 2027
594 2169
594 2172
594 2175
594 3541
594 3550
594 3559
594 4962
594 4989
594 5016
595 2061
595 2062
595 2063
595 2153
595 2156
595 2159
595 3486
595 3495
595 3504
595 4962
595 4989
595 5016
596 2097
596 2098
596 2099
596 2107
596 2110
596 2113
596 3515
596 3524
596 3533
596 4962
596 4989
596 5016
597 2064
597 2065
597 2066
597 2116
597 2119
597 2122
597 3541
597 3550
597 3559
597 4967
597 4994
597 5021
598 2100
598 2101
598 2102
598 2178
598 2181
598 2184
598 3486
598 3495
598 3504
598 4967
598 4994
598 5021
599 2028
599 2029
599 2030
599 2135
599 2138
599 2141
599 3515
599 3524
599 3533
599 4967
599 4994
599 5021
600 2103
600 2104
600 2105
600 2144
600 2147
600 2150
600 3541
600 3550
600 3559
600 4960
600 4987
600 5014
601 2031
601 2032
601 2033
601 2125
601 2128
601 2131
601 3486
601 3495
601 3504
601 4960
601 4987
601 5014
602 2067
602 2068
602 2069
602 2160
602 2163
602 2166
602 3515
602 3524
602 3533
602 4960
602 4987
602 5014
603 2037
603 2038
603 2039
603 2169
603 2172
603 2175
603 3545
603 3554
603 3563
603 4942
603 4969
603 4996
604 2073
604 2074
604 2075
604 2153
604 2156
604 2159
604 3490
604 3499
604 3508
604 4942
604 4969
604 4996
605 2082
605 2083
605 2084
605 2107
605 2110
605 2113
605 3516
605 3525
605 3534
605 4942
605 4969
605 4996
606 2076
606 2077
606 2078
606 2116
606 2119
606 2122
606 3545
606 3554
606 3563
606 4944
606 4971
606 4998
607 2085
607 2086
607 2087
607 2178
607 2181
607 2184
607 3490
607 3499
607 3508
607 4944
607 4971
607 4998
608 2040
608 2041
608 2042
608 2135
608 2138
608 2141
608 3516
608 3525
608 3534
608 4944
608 4971
608 4998
609 2079
609 2080
609 2081
609 2144
609 2147
609 2150
609 3545
609 3554
609 3563
609 4949
609 4976
609 5003
610 2034
610 2035
610 2036
610 2125
610 2128
610 2131
610 3490
610 3499
610 3508
610 4949
610 4976
610 5003
611 2070
611 2071
611 2072
611 2160
611 2163
611 2166
611 3516
611 3525
611 3534
611 4949
611 4976
611 5003
612 2049
612 2050
612 2051
612 2169
612 2172
612 2175
612 3537
612 3546
612 3555
612 4958
612 4985
612 5012
613 2058
613 2059
613 2060
613 2153
613 2156
613 2159
613 3485
613 3494
613 3503
613 4958
613 4985
613 5012
614 2094
614 2095
614 2096
614 2107
614 2110
614 2113
614 3511
614 3520
614 3529
614 4958
614 4985
614 5012
615 2052
615 2053
615 2054
615 2116
615 2119
615 2122
615 3537
615 3546
615 3555
615 4951
615 4978
615 5005
616 2088
616 2089
616 2090
616 2178
616 2181
616 2184
616 3485
616 3494
616 3503
616 4951
616 4978
616 5005
617 2043
617 2044
617 2045
617 2135
617 2138
617 2141
617 3511
617 3520
617 3529
617 4951
617 4978
617 5005
618 2091
618 2092
618 2093
618 2144
618 2147
618 2150
618 3537
618 3546
618 3555
618 4953
618 4980
618 5007
619 2046
619 2047
619 2048
619 2125
619 2128
619 2131
619 3485
619 3494
619 3503
619 4953
619 4980
619 5007
620 2055
620 2056
620 2057
620 2160
620 2163
620 2166
620 3511
620 3520
620 3529
620 4953
620 4980
620 5007
621 2025
621 2026
621 2027
621 2151
621 2154
621 2157
621 3518
621 3527
621 3536
621 4956
621 4983
621 5010
622 2061
622 2062
622 2063
622 2108
622 2111
622 2114
622 3544
622 3553
622 3562
622 4956
622 4983
622 5010
623 2097
623 2098
623 2099
623 2170
623 2173
623 2176
623 3489
623 3498
623 3507
623 4956
623 4983
623 5010
624 2064
624 2065
624 2066
624 2179
624 2182
624 2185
624 3518
624 3527
624 3536
624 4952
624 4979
624 5006
625 2100
625 2101
625 2102
625 2133
625 2136
625 2139
625 3544
625 3553
625 3562
625 4952
625 4979
625 5006
626 2028
626 2029
626 2030
626 2117
626 2120
626 2123
626 3489
626 3498
626 3507
626 4952
626 4979
626 5006
627 2103
627 2104
627 2105
627 2126
627 2129
627 2132
627 3518
627 3527
627 3536
627 4954
627 4981
627 5008
628 2031
628 2032
628 2033
628 2161
628 2164
628 2167
628 3544
628 3553
628 3562
628 4954
628 4981
628 5008
629 2067
629 2068
629 2069
629 2142
629 2145
629 2148
629 3489
629 3498
629 3507
629 4954
629 4981
629 5008
630 2037
630 2038
630 2039
630 2151
630 2154
630 2157
630 3510
630 3519
630 3528
630 4963
630 4990
630 5017
631 2073
631 2074
631 2075
631 2108
631 2111
631 2114
631 3539
631 3548
631 3557
631 4963
631 4990
631 5017
632 2082
632 2083
632 2084
632 2170
632 2173
632 2176
632 3484
632 3493
632 3502
632 4963
632 4990
632 5017
633 2076
633 2077
633 2078
633 2179
633 2182
633 2185
633 3510
633 3519
633 3528
633 4965
633 4992
633 5019
634 2085
634 2086
634 2087
634 2133
634 2136
634 2139
634 3539
634 3548
634 3557
634 4965
634 4992
634 5019
635 2040
635 2041
635 2042
635 2117
635 2120
635 2123
635 3484
635 3493
635 3502
635 4965
635 4992
635 5019
636 2079
636 2080
636 2081
636 2126
636 2129
636 2132
636 3510
636 3519
636 3528
636 4961
636 4988
636 5015
637 2034
637 2035
637 2036
637 2161
637 2164
637 2167
637 3539
637 3548
637 3557
637 4961
637 4988
637 5015
638 2070
638 2071
638 2072
638 2142
638 2145
638 2148
638 3484
638 3493
638 3502
638 4961
638 4988
638 5015
639 2049
639 2050
639 2051
639 2151
639 2154
639 2157
639 3514
639 3523
639 3532
639 4943
639 4970
639 4997
640 2058
640 2059
640 2060
640 2108
640 2111
640 2114
640 3540
640 3549
640 3558
640 4943
640 4970
640 4997
641 2094
641 2095
641 2096
641 2170
641 2173
641 2176
641 3488
641 3497
641 3506
641 4943
641 4970
641 4997
642 2052
642 2053
642 2054
642 2179
642 2182
642 2185
642 3514
642 3523
642 3532
642 4945
642 4972
642 4999
643 2088
643 2089
643 2090
643 2133
643 2136
643 2139
643 3540
643 3549
643 3558
643 4945
643 4972
643 4999
644 2043
644 2044
644 2045
644 2117
644 2120
644 2123
644 3488
644 3497
644 3506
644 4945
644 4972
644 4999
645 2091
645 2092
645 2093
645 2126
645 2129
645 2132
645 3514
645 3523
645 3532
645 4947
645 4974
645 5001
646 2046
646 2047
646 2048
646 2161
646 2164
646 2167
646 3540
646 3549
646 3558
646 4947
646 4974
646 5001
647 2055
647 2056
647 2057
647 2142
647 2145
647 2148
647 3488
647 3497
647 3506
647 4947
647 4974
647 5001
648 1458
648 1461
648 1464
648 2106
648 2107
648 2108
648 3564
648 3573
648 3582
648 5022
648 5049
648 5076
649 1523
649 1526
649 1529
649 2142
649 2143
649 2144
649 3593
649 3602
649 3611
649 5022
649 5049
649 5076
650 1504
650 1507
650 1510
650 2178
650 2179
650 2180
650 3619
650 3628
650 3637
650 5022
650 5049
650 5076
651 1486
651 1489
651 1492
651 2145
651 2146
651 2147
651 3564
651 3573
651 3582
651 5027
651 5054
651 5081
652 1467
652 1470
652 1473
652 2181
652 2182
652 2183
652 3593
652 3602
652 3611
652 5027
652 5054
652 5081
653 1532
653 1535
653 1538
653 2109
653 2110
653 2111
653 3619
653 3628
653 3637
653 5027
653 5054
653 5081
654 1514
654 1517
654 1520
654 2184
654 2185
654 2186
654 3564
654 3573
654 3582
654 5029
654 5056
654 5083
655 1495
655 1498
655 1501
655 2112
655 2113
655 2114
655 3593
655 3602
655 3611
655 5029
655 5056
655 5083
656 1476
656 1479
656 1482
656 2148
656 2149
656 2150
656 3619
656 3628
656 3637
656 5029
656 5056
656 5083
657 1458
657 1461
657 1464
657 2118
657 2119
657 2120
657 3568
657 3577
657 3586
657 5038
657 5065
657 5092
658 1523
658 1526
658 1529
658 2154
658 2155
658 2156
658 3594
658 3603
658 3612
658 5038
658 5065
658 5092
659 1504
659 1507
659 1510
659 2163
659 2164
659 2165
659 3623
659 3632
659 3641
659 5038
659 5065
659 5092
660 1486
660 1489
660 1492
660 2157
660 2158
660 2159
660 3568
660 3577
660 3586
660 5031
660 5058
660 5085
661 1467
661 1470
661 1473
661 2166
661 2167
661 2168
661 3594
661 3603
661 3612
661 5031
661 5058
661 5085
662 1532
662 1535
662 1538
662 2121
662 2122
662 2123
662 3623
662 3632
662 3641
662 5031
662 5058
662 5085
663 1514
663 1517
663 1520
663 2160
663 2161
663 2162
663 3568
663 3577
663 3586
663 5036
663 5063
663 5090
664 1495
664 1498
664 1501
664 2115
664 2116
664 2117
664 3594
664 3603
664 3612
664 5036
664 5063
664 5090
665 1476
665 1479
665 1482
665 2151
665 2152
665 2153
665 3623
665 3632
665 3641
665 5036
665 5063
665 5090
666 1458
666 1461
666 1464
666 2130
666 2131
666 2132
666 3572
666 3581
666 3590
666 5045
666 5072
666 5099
667 1523
667 1526
667 1529
667 2139
667 2140
667 2141
667 3598
667 3607
667 3616
667 5045
667 5072
667 5099
668 1504
668 1507
668 1510
668 2175
668 2176
668 2177
668 3624
668 3633
668 3642
668 5045
668 5072
668 5099
669 1486
669 1489
669 1492
669 2133
669 2134
669 2135
669 3572
669 3581
669 3590
669 5047
669 5074
669 5101
670 1467
670 1470
670 1473
670 2169
670 2170
670 2171
670 3598
670 3607
670 3616
670 5047
670 5074
670 5101
671 1532
671 1535
671 1538
671 2124
671 2125
671 2126
671 3624
671 3633
671 3642
671 5047
671 5074
671 5101
672 1514
672 1517
672 1520
672 2172
672 2173
672 2174
672 3572
672 3581
672 3590
672 5040
672 5067
672 5094
673 1495
673 1498
673 1501
673 2127
673 2128
673 2129
673 3598
673 3607
673 3616
673 5040
673 5067
673 5094
674 1476
674 1479
674 1482
674 2136
674 2137
674 2138
674 3624
674 3633
674 3642
674 5040
674 5067
674 5094
675 1521
675 1524
675 1527
675 2106
675 2107
675 2108
675 3622
675 3631
675 3640
675 5043
675 5070
675 5097
676 1505
676 1508
676 1511
676 2142
676 2143
676 2144
676 3567
676 3576
676 3585
676 5043
676 5070
676 5097
677 1459
677 1462
677 1465
677 2178
677 2179
677 2180
677 3596
677 3605
677 3614
677 5043
677 5070
677 5097
678 1468
678 1471
678 1474
678 2145
678 2146
678 2147
678 3622
678 3631
678 3640
678 5048
678 5075
678 5102
679 1530
679 1533
679 1536
679 2181
679 2182
679 2183
679 3567
679 3576
679 3585
679 5048
679 5075
679 5102
680 1487
680 1490
680 1493
680 2109
680 2110
680 2111
680 3596
680 3605
680 3614
680 5048
680 5075
680 5102
681 1496
681 1499
681 1502
681 2184
681 2185
681 2186
681 3622
681 3631
681 3640
681 5041
681 5068
681 5095
682 1477
682 1480
682 1483
682 2112
682 2113
682 2114
682 3567
682 3576
682 3585
682 5041
682 5068
682 5095
683 1512
683 1515
683 1518
683 2148
683 2149
683 2150
683 3596
683 3605
683 3614
683 5041
683 5068
683 5095
684 1521
684 1524
684 1527
684 2118
684 2119
684 2120
684 3626
684 3635
684 3644
684 5023
684 5050
684 5077
685 1505
685 1508
685 1511
685 2154
685 2155
685 2156
685 3571
685 3580
685 3589
685 5023
685 5050
685 5077
686 1459
686 1462
686 1465
686 2163
686 2164
686 2165
686 3597
686 3606
686 3615
686 5023
686 5050
686 5077
687 1468
687 1471
687 1474
687 2157
687 2158
687 2159
687 3626
687 3635
687 3644
687 5025
687 5052
687 5079
688 1530
688 1533
688 1536
688 2166
688 2167
688 2168
688 3571
688 3580
688 3589
688 5025
688 5052
688 5079
689 1487
689 1490
689 1493
689 2121
689 2122
689 2123
689 3597
689 3606
689 3615
689 5025
689 5052
689 5079
690 1496
690 1499
690 1502
690 2160
690 2161
690 2162
690 3626
690 3635
690 3644
690 5030
690 5057
690 5084
691 1477
691 1480
691 1483
691 2115
691 2116
691 2117
691 3571
691 3580
691 3589
691 5030
691 5057
691 5084
692 1512
692 1515
692 1518
692 2151
692 2152
692 2153
692 3597
692 3606
692 3615
692 5030
692 5057
692 5084
693 1521
693 1524
693 1527
693 2130
693 2131
693 2132
693 3618
693 3627
693 3636
693 5039
693 5066
693 5093
694 1505
694 1508
694 1511
694 2139
694 2140
694 2141
694 3566
694 3575
694 3584
694 5039
694 5066
694 5093
695 1459
695 1462
695 1465
695 2175
695 2176
695 2177
695 3592
695 3601
695 3610
695 5039
695 5066
695 5093
696 1468
696 1471
696 1474
696 2133
696 2134
696 2135
696 3618
696 3627
696 3636
696 5032
696 5059
696 5086
697 1530
697 1533
697 1536
697 2169
697 2170
697 2171
697 3566
697 3575
697 3584
697 5032
697 5059
697 5086
698 1487
698 1490
698 1493
698 2124
698 2125
698 2126
698 3592
698 3601
698 3610
698 5032
698 5059
698 5086
699 1496
699 1499
699 1502
699 2172
699 2173
699 2174
699 3618
699 3627
699 3636
699 5034
699 5061
699 5088
700 1477
700 1480
700 1483
700 2127
700 2128
700 2129
700 3566
700 3575
700 3584
700 5034
700 5061
700 5088
701 1512
701 1515
701 1518
701 2136
701 2137
701 2138
701 3592
701 3601
701 3610
701 5034
701 5061
701 5088
702 1503
702 1506
702 1509
702 2106
702 2107
702 2108
702 3599
702 3608
702 3617
702 5037
702 5064
702 5091
703 1460
703 1463
703 1466
703 2142
703 2143
703 2144
703 3625
703 3634
703 3643
703 5037
703 5064
703 5091
704 1522
704 1525
704 1528
704 2178
704 2179
704 2180
704 3570
704 3579
704 3588
704 5037
704 5064
704 5091
705 1531
705 1534
705 1537
705 2145
705 2146
705 2147
705 3599
705 3608
705 3617
705 5033
705 5060
705 5087
706 1485
706 1488
706 1491
706 2181
706 2182
706 2183
706 3625
706 3634
706 3643
706 5033
706 5060
706 5087
707 1469
707 1472
707 1475
707 2109
707 2110
707 2111
707 3570
707 3579
707 3588
707 5033
707 5060
707 5087
708 1478
708 1481
708 1484
708 2184
708 2185
708 2186
708 3599
708 3608
708 3617
708 5035
708 5062
708 5089
709 1513
709 1516
709 1519
709 2112
709 2113
709 2114
709 3625
709 3634
709 3643
709 5035
709 5062
709 5089
710 1494
710 1497
710 1500
710 2148
710 2149
710 2150
710 3570
710 3579
710 3588
710 5035
710 5062
710 5089
711 1503
711 1506
711 1509
711 2118
711 2119
711 2120
711 3591
711 3600
711 3609
711 5044
711 5071
711 5098
712 1460
712 1463
712 1466
712 2154
712 2155
712 2156
712 3620
712 3629
712 3638
712 5044
712 5071
712 5098
713 1522
713 1525
713 1528
713 2163
713 2164
713 2165
713 3565
713 3574
713 3583
713 5044
713 5071
713 5098
714 1531
714 1534
714 1537
714 2157
714 2158
714 2159
714 3591
714 3600
714 3609
714 5046
714 5073
714 5100
715 1485
715 1488
715 1491
715 2166
715 2167
715 2168
715 3620
715 3629
715 3638
715 5046
715 5073
715 5100
716 1469
716 1472
716 1475
716 2121
716 2122
716 2123
716 3565
716 3574
716 3583
716 5046
716 5073
716 5100
717 1478
717 1481
717 1484
717 2160
717 2161
717 2162
717 3591
717 3600
717 3609
717 5042
717 5069
717 5096
718 1513
718 1516
718 1519
718 2115
718 2116
718 2117
718 3620
718 3629
718 3638
718 5042
718 5069
718 5096
719 1494
719 1497
719 1500
719 2151
719 2152
719 2153
719 3565
719 3574
719 3583
719 5042
719 5069
719 5096
720 1503
720 1506
720 1509
720 2130
720 2131
720 2132
720 3595
720 3604
720 3613
720 5024
720 5051
720 5078
721 1460
721 1463
721 1466
721 2139
721 2140
721 2141
721 3621
721 3630
721 3639
721 5024
721 5051
721 5078
722 1522
722 1525
722 1528
722 2175
722 2176
722 2177
722 3569
722 3578
722 3587
722 5024
722 5051
722 5078
723 1531
723 1534
723 1537
723 2133
723 2134
723 2135
723 3595
723 3604
723 3613
723 5026
723 5053
723 5080
724 1485
724 1488
724 1491
724 2169
724 2170
724 2171
724 3621
724 3630
724 3639
724 5026
724 5053
724 5080
725 1469
725 1472
725 1475
725 2124
725 2125
725 2126
725 3569
725 3578
725 3587
725 5026
725 5053
725 5080
726 1478
726 1481
726 1484
726 2172
726 2173
726 2174
726 3595
726 3604
726 3613
726 5028
726 5055
726 5082
727 1513
727 1516
727 1519
727 2127
727 2128
727 2129
727 3621
727 3630
727 3639
727 5028
727 5055
727 5082
728 1494
728 1497
728 1500
728 2136
728 2137
728 2138
728 3569
728 3578
728 3587
728 5028
728 5055
728 5082
729 2187
729 2188
729 2189
729 2268
729 2271
729 2274
729 3645
729 3654
729 3663
729 5103
729 5130
729 5157
730 2223
730 2224
730 2225
730 2333
730 2336
730 2339
730 3674
730 3683
730 3692
730 5103
730 5130
730 5157
731 2259
731 2260
731 2261
731 2314
731 2317
731 2320
731 3700
731 3709
731 3718
731 5103
731 5130
731 5157
732 2226
732 2227
732 2228
732 2296
732 2299
732 2302
732 3645
732 3654
732 3663
732 5108
732 5135
732 5162
733 2262
733 2263
733 2264
733 2277
733 2280
733 2283
733 3674
733 3683
733 3692
733 5108
733 5135
733 5162
734 2190
734 2191
734 2192
734 2342
734 2345
734 2348
734 3700
734 3709
734 3718
734 5108
734 5135
734 5162
735 2265
735 2266
735 2267
735 2324
735 2327
735 2330
735 3645
735 3654
735 3663
735 5110
735 5137
735 5164
736 2193
736 2194
736 2195
736 2305
736 2308
736 2311
736 3674
736 3683
736 3692
736 5110
736 5137
736 5164
737 2229
737 2230
737 2231
737 2286
737 2289
737 2292
737 3700
737 3709
737 3718
737 5110
737 5137
737 5164
738 2199
738 2200
738 2201
738 2268
738 2271
738 2274
738 3649
738 3658
738 3667
738 5119
738 5146
738 5173
739 2235
739 2236
739 2237
739 2333
739 2336
739 2339
739 3675
739 3684
739 3693
739 5119
739 5146
739 5173
740 2244
740 2245
740 2246
740 2314
740 2317
740 2320
740 3704
740 3713
740 3722
740 5119
740 5146
740 5173
741 2238
741 2239
741 2240
741 2296
741 2299
741 2302
741 3649
741 3658
741 3667
741 5112
741 5139
741 5166
742 2247
742 2248
742 2249
742 2277
742 2280
742 2283
742 3675
742 3684
742 3693
742 5112
742 5139
742 5166
743 2202
743 2203
743 2204
743 2342
743 2345
743 2348
743 3704
743 3713
743 3722
743 5112
743 5139
743 5166
744 2241
744 2242
744 2243
744 2324
744 2327
744 2330
744 3649
744 3658
744 3667
744 5117
744 5144
744 5171
745 2196
745 2197
745 2198
745 2305
745 2308
745 2311
745 3675
745 3684
745 3693
745 5117
745 5144
745 5171
746 2232
746 2233
746 2234
746 2286
746 2289
746 2292
746 3704
746 3713
746 3722
746 5117
746 5144
746 5171
747 2211
747 2212
747 2213
747 2268
747 2271
747 2274
747 3653
747 3662
747 3671
747 5126
747 5153
747 5180
748 2220
748 2221
748 2222
748 2333
748 2336
748 2339
748 3679
748 3688
748 3697
748 5126
748 5153
748 5180
749 2256
749 2257
749 2258
749 2314
749 2317
749 2320
749 3705
749 3714
749 3723
749 5126
749 5153
749 5180
750 2214
750 2215
750 2216
750 2296
750 2299
750 2302
750 3653
750 3662
750 3671
750 5128
750 5155
750 5182
751 2250
751 2251
751 2252
751 2277
751 2280
751 2283
751 3679
751 3688
751 3697
751 5128
751 5155
751 5182
752 2205
752 2206
752 2207
752 2342
752 2345
752 2348
752 3705
752 3714
752 3723
752 5128
752 5155
752 5182
753 2253
753 2254
753 2255
753 2324
753 2327
753 2330
753 3653
753 3662
753 3671
753 5121
753 5148
753 5175
754 2208
754 2209
754 2210
754 2305
754 2308
754 2311
754 3679
754 3688
754 3697
754 5121
754 5148
754 5175
755 2217
755 2218
755 2219
755 2286
755 2289
755 2292
755 3705
755 3714
755 3723
755 5121
755 5148
755 5175
756 2187
756 2188
756 2189
756 2331
756 2334
756 2337
756 3703
756 3712
756 3721
756 5124
756 5151
756 5178
757 2223
757 2224
757 2225
757 2315
757 2318
757 2321
757 3648
757 3657
757 3666
757 5124
757 5151
757 5178
758 2259
758 2260
758 2261
758 2269
758 2272
758 2275
758 3677
758 3686
758 3695
758 5124
758 5151
758 5178
759 2226
759 2227
759 2228
759 2278
759 2281
759 2284
759 3703
759 3712
759 3721
759 5129
759 5156
759 5183
760 2262
760 2263
760 2264
760 2340
760 2343
760 2346
760 3648
760 3657
760 3666
760 5129
760 5156
760 5183
761 2190
761 2191
761 2192
761 2297
761 2300
761 2303
761 3677
761 3686
761 3695
761 5129
761 5156
761 5183
762 2265
762 2266
762 2267
762 2306
762 2309
762 2312
762 3703
762 3712
762 3721
762 5122
762 5149
762 5176
763 2193
763 2194
763 2195
763 2287
763 2290
763 2293
763 3648
763 3657
763 3666
763 5122
763 5149
763 5176
764 2229
764 2230
764 2231
764 2322
764 2325
764 2328
764 3677
764 3686
764 3695
764 5122
764 5149
764 5176
765 2199
765 2200
765 2201
765 2331
765 2334
765 2337
765 3707
765 3716
765 3725
765 5104
765 5131
765 5158
766 2235
766 2236
766 2237
766 2315
766 2318
766 2321
766 3652
766 3661
766 3670
766 5104
766 5131
766 5158
767 2244
767 2245
767 2246
767 2269
767 2272
767 2275
767 3678
767 3687
767 3696
767 5104
767 5131
767 5158
768 2238
768 2239
768 2240
768 2278
768 2281
768 2284
768 3707
768 3716
768 3725
768 5106
768 5133
768 5160
769 2247
769 2248
769 2249
769 2340
769 2343
769 2346
769 3652
769 3661
769 3670
769 5106
769 5133
769 5160
770 2202
770 2203
770 2204
770 2297
770 2300
770 2303
770 3678
770 3687
770 3696
770 5106
770 5133
770 5160
771 2241
771 2242
771 2243
771 2306
771 2309
771 2312
771 3707
771 3716
771 3725
771 5111
771 5138
771 5165
772 2196
772 2197
772 2198
772 2287
772 2290
772 2293
772 3652
772 3661
772 3670
772 5111
772 5138
772 5165
773 2232
773 2233
773 2234
773 2322
773 2325
773 2328
773 3678
773 3687
773 3696
773 5111
773 5138
773 5165
774 2211
774 2212
774 2213
774 2331
774 2334
774 2337
774 3699
774 3708
774 3717
774 5120
774 5147
774 5174
775 2220
775 2221
775 2222
775 2315
775 2318
775 2321
775 3647
775 3656
775 3665
775 5120
775 5147
775 5174
776 2256
776 2257
776 2258
776 2269
776 2272
776 2275
776 3673
776 3682
776 3691
776 5120
776 5147
776 5174
777 2214
777 2215
777 2216
777 2278
777 2281
777 2284
777 3699
777 3708
777 3717
777 5113
777 5140
777 5167
778 2250
778 2251
778 2252
778 2340
778 2343
778 2346
778 3647
778 3656
778 3665
778 5113
778 5140
778 5167
779 2205
779 2206
779 2207
779 2297
779 2300
779 2303
779 3673
779 3682
779 3691
779 5113
779 5140
779 5167
780 2253
780 2254
780 2255
780 2306
780 2309
780 2312
780 3699
780 3708
780 3717
780 5115
780 5142
780 5169
781 2208
781 2209
781 2210
781 2287
781 2290
781 2293
781 3647
781 3656
781 3665
781 5115
781 5142
781 5169
782 2217
782 2218
782 2219
782 2322
782 2325
782 2328
782 3673
782 3682
782 3691
782 5115
782 5142
782 5169
783 2187
783 2188
783 2189
783 2313
783 2316
783 2319
783 3680
783 3689
783 3698
783 5118
783 5145
783 5172
784 2223
784 2224
784 2225
784 2270
784 2273
784 2276
784 3706
784 3715
784 3724
784 5118
784 5145
784 5172
785 2259
785 2260
785 2261
785 2332
785 2335
785 2338
785 3651
785 3660
785 3669
785 5118
785 5145
785 5172
786 2226
786 2227
786 2228
786 2341
786 2344
786 2347
786 3680
786 3689
786 3698
786 5114
786 5141
786 5168
787 2262
787 2263
787 2264
787 2295
787 2298
787 2301
787 3706
787 3715
787 3724
787 5114
787 5141
787 5168
788 2190
788 2191
788 2192
788 2279
788 2282
788 2285
788 3651
788 3660
788 3669
788 5114
788 5141
788 5168
789 2265
789 2266
789 2267
789 2288
789 2291
789 2294
789 3680
789 3689
789 3698
789 5116
789 5143
789 5170
790 2193
790 2194
790 2195
790 2323
790 2326
790 2329
790 3706
790 3715
790 3724
790 5116
790 5143
790 5170
791 2229
791 2230
791 2231
791 2304
791 2307
791 2310
791 3651
791 3660
791 3669
791 5116
791 5143
791 5170
792 2199
792 2200
792 2201
792 2313
792 2316
792 2319
792 3672
792 3681
792 3690
792 5125
792 5152
792 5179
793 2235
793 2236
793 2237
793 2270
793 2273
793 2276
793 3701
793 3710
793 3719
793 5125
793 5152
793 5179
794 2244
794 2245
794 2246
794 2332
794 2335
794 2338
794 3646
794 3655
794 3664
794 5125
794 5152
794 5179
795 2238
795 2239
795 2240
795 2341
795 2344
795 2347
795 3672
795 3681
795 3690
795 5127
795 5154
795 5181
796 2247
796 2248
796 2249
796 2295
796 2298
796 2301
796 3701
796 3710
796 3719
796 5127
796 5154
796 5181
797 2202
797 2203
797 2204
797 2279
797 2282
797 2285
797 3646
797 3655
797 3664
797 5127
797 5154
797 5181
798 2241
798 2242
798 2243
798 2288
798 2291
798 2294
798 3672
798 3681
798 3690
798 5123
798 5150
798 5177
799 2196
799 2197
799 2198
799 2323
799 2326
799 2329
799 3701
799 3710
799 3719
799 5123
799 5150
799 5177
800 2232
800 2233
800 2234
800 2304
800 2307
800 2310
800 3646
800 3655
800 3664
800 5123
800 5150
800 5177
801 2211
801 2212
801 2213
801 2313
801 2316
801 2319
801 3676
801 3685
801 3694
801 5105
801 5132
801 5159
802 2220
802 2221
802 2222
802 2270
802 2273
802 2276
802 3702
802 3711
802 3720
802 5105
802 5132
802 5159
803 2256
803 2257
803 2258
803 2332
803 2335
803 2338
803 3650
803 3659
803 3668
803 5105
803 5132
803 5159
804 2214
804 2215
804 2216
804 2341
804 2344
804 2347
804 3676
804 3685
804 3694
804 5107
804 5134
804 5161
805 2250
805 2251
805 2252
805 2295
805 2298
805 2301
805 3702
805 3711
805 3720
805 5107
805 5134
805 5161
806 2205
806 2206
806 2207
806 2279
806 2282
806 2285
806 3650
806 3659
806 3668
806 5107
806 5134
806 5161
807 2253
807 2254
807 2255
807 2288
807 2291
807 2294
807 3676
807 3685
807 3694
807 5109
807 5136
807 5163
808 2208
808 2209
808 2210
808 2323
808 2326
808 2329
808 3702
808 3711
808 3720
808 5109
808 5136
808 5163
809 2217
809 2218
809 2219
809 2304
809 2307
809 2310
809 3650
809 3659
809 3668
809 5109
809 5136
809 5163
810 2268
810 2269
810 2270
810 2349
810 2352
810 2355
810 3726
810 3735
810 3744
810 5184
810 5211
810 5238
811 2304
811 2305
811 2306
811 2414
811 2417
811 2420
811 3755
811 3764
811 3773
811 5184
811 5211
811 5238
812 2340
812 2341
812 2342
812 2395
812 2398
812 2401
812 3781
812 3790
812 3799
812 5184
812 5211
812 5238
813 2307
813 2308
813 2309
813 2377
813 2380
813 2383
813 3726
813 3735
813 3744
813 5189
813 5216
813 5243
814 2343
814 2344
814 2345
814 2358
814 2361
814 2364
814 3755
814 3764
814 3773
814 5189
814 5216
814 5243
815 2271
815 2272
815 2273
815 2423
815 2426
815 2429
815 3781
815 3790
815 3799
815 5189
815 5216
815 5243
816 2346
816 2347
816 2348
816 2405
816 2408
816 2411
816 3726
816 3735
816 3744
816 5191
816 5218
816 5245
817 2274
817 2275
817 2276
817 2386
817 2389
817 2392
817 3755
817 3764
817 3773
817 5191
817 5218
817 5245
818 2310
818 2311
818 2312
818 2367
818 2370
818 2373
818 3781
818 3790
818 3799
818 5191
818 5218
818 5245
819 2280
819 2281
819 2282
819 2349
819 2352
819 2355
819 3730
819 3739
819 3748
819 5200
819 5227
819 5254
820 2316
820 2317
820 2318
820 2414
820 2417
820 2420
820 3756
820 3765
820 3774
820 5200
820 5227
820 5254
821 2325
821 2326
821 2327
821 2395
821 2398
821 2401
821 3785
821 3794
821 3803
821 5200
821 5227
821 5254
822 2319
822 2320
822 2321
822 2377
822 2380
822 2383
822 3730
822 3739
822 3748
822 5193
822 5220
822 5247
823 2328
823 2329
823 2330
823 2358
823 2361
823 2364
823 3756
823 3765
823 3774
823 5193
823 5220
823 5247
824 2283
824 2284
824 2285
824 2423
824 2426
824 2429
824 3785
824 3794
824 3803
824 5193
824 5220
824 5247
825 2322
825 2323
825 2324
825 2405
825 2408
825 2411
825 3730
825 3739
825 3748
825 5198
825 5225
825 5252
826 2277
826 2278
826 2279
826 2386
826 2389
826 2392
826 3756
826 3765
826 3774
826 5198
826 5225
826 5252
827 2313
827 2314
827 2315
827 2367
827 2370
827 2373
827 3785
827 3794
827 3803
827 5198
827 5225
827 5252
828 2292
828 2293
828 2294
828 2349
828 2352
828 2355
828 3734
828 3743
828 3752
828 5207
828 5234
828 5261
829 2301
829 2302
829 2303
829 2414
829 2417
829 2420
829 3760
829 3769
829 3778
829 5207
829 5234
829 5261
830 2337
830 2338
830 2339
830 2395
830 2398
830 2401
830 3786
830 3795
830 3804
830 5207
830 5234
830 5261
831 2295
831 2296
831 2297
831 2377
831 2380
831 2383
831 3734
831 3743
831 3752
831 5209
831 5236
831 5263
832 2331
832 2332
832 2333
832 2358
832 2361
832 2364
832 3760
832 3769
832 3778
832 5209
832 5236
832 5263
833 2286
833 2287
833 2288
833 2423
833 2426
833 2429
833 3786
833 3795
833 3804
833 5209
833 5236
833 5263
834 2334
834 2335
834 2336
834 2405
834 2408
834 2411
834 3734
834 3743
834 3752
834 5202
834 5229
834 5256
835 2289
835 2290
835 2291
835 2386
835 2389
835 2392
835 3760
835 3769
835 3778
835 5202
835 5229
835 5256
836 2298
836 2299
836 2300
836 2367
836 2370
836 2373
836 3786
836 3795
836 3804
836 5202
836 5229
836 5256
837 2268
837 2269
837 2270
837 2412
837 2415
837 2418
837 3784
837 3793
837 3802
837 5205
837 5232
837 5259
838 2304
838 2305
838 2306
838 2396
838 2399
838 2402
838 3729
838 3738
838 3747
838 5205
838 5232
838 5259
839 2340
839 2341
839 2342
839 2350
839 2353
839 2356
839 3758
839 3767
839 3776
839 5205
839 5232
839 5259
840 2307
840 2308
840 2309
840 2359
840 2362
840 2365
840 3784
840 3793
840 3802
840 5210
840 5237
840 5264
841 2343
841 2344
841 2345
841 2421
841 2424
841 2427
841 3729
841 3738
841 3747
841 5210
841 5237
841 5264
842 2271
842 2272
842 2273
842 2378
842 2381
842 2384
842 3758
842 3767
842 3776
842 5210
842 5237
842 5264
843 2346
843 2347
843 2348
843 2387
843 2390
843 2393
843 3784
843 3793
843 3802
843 5203
843 5230
843 5257
844 2274
844 2275
844 2276
844 2368
844 2371
844 2374
844 3729
844 3738
844 3747
844 5203
844 5230
844 5257
845 2310
845 2311
845 2312
845 2403
845 2406
845 2409
845 3758
845 3767
845 3776
845 5203
845 5230
845 5257
846 2280
846 2281
846 2282
846 2412
846 2415
846 2418
846 3788
846 3797
846 3806
846 5185
846 5212
846 5239
847 2316
847 2317
847 2318
847 2396
847 2399
847 2402
847 3733
847 3742
847 3751
847 5185
847 5212
847 5239
848 2325
848 2326
848 2327
848 2350
848 2353
848 2356
848 3759
848 3768
848 3777
848 5185
848 5212
848 5239
849 2319
849 2320
849 2321
849 2359
849 2362
849 2365
849 3788
849 3797
849 3806
849 5187
849 5214
849 5241
850 2328
850 2329
850 2330
850 2421
850 2424
850 2427
850 3733
850 3742
850 3751
850 5187
850 5214
850 5241
851 2283
851 2284
851 2285
851 2378
851 2381
851 2384
851 3759
851 3768
851 3777
851 5187
851 5214
851 5241
852 2322
852 2323
852 2324
852 2387
852 2390
852 2393
852 3788
852 3797
852 3806
852 5192
852 5219
852 5246
853 2277
853 2278
853 2279
853 2368
853 2371
853 2374
853 3733
853 3742
853 3751
853 5192
853 5219
853 5246
854 2313
854 2314
854 2315
854 2403
854 2406
854 2409
854 3759
854 3768
854 3777
854 5192
854 5219
854 5246
855 2292
855 2293
855 2294
855 2412
855 2415
855 2418
855 3780
855 3789
855 3798
855 5201
855 5228
855 5255
856 2301
856 2302
856 2303
856 2396
856 2399
856 2402
856 3728
856 3737
856 3746
856 5201
856 5228
856 5255
857 2337
857 2338
857 2339
857 2350
857 2353
857 2356
857 3754
857 3763
857 3772
857 5201
857 5228
857 5255
858 2295
858 2296
858 2297
858 2359
858 2362
858 2365
858 3780
858 3789
858 3798
858 5194
858 5221
858 5248
859 2331
859 2332
859 2333
859 2421
859 2424
859 2427
859 3728
859 3737
859 3746
859 5194
859 5221
859 5248
860 2286
860 2287
860 2288
860 2378
860 2381
860 2384
860 3754
860 3763
860 3772
860 5194
860 5221
860 5248
861 2334
861 2335
861 2336
861 2387
861 2390
861 2393
861 3780
861 3789
861 3798
861 5196
861 5223
861 5250
862 2289
862 2290
862 2291
862 2368
862 2371
862 2374
862 3728
862 3737
862 3746
862 5196
862 5223
862 5250
863 2298
863 2299
863 2300
863 2403
863 2406
863 2409
863 3754
863 3763
863 3772
863 5196
863 5223
863 5250
864 2268
864 2269
864 2270
864 2394
864 2397
864 2400
864 3761
864 3770
864 3779
864 5199
864 5226
864 5253
865 2304
865 2305
865 2306
865 2351
865 2354
865 2357
865 3787
865 3796
865 3805
865 5199
865 5226
865 5253
866 2340
866 2341
866 2342
866 2413
866 2416
866 2419
866 3732
866 3741
866 3750
866 5199
866 5226
866 5253
867 2307
867 2308
867 2309
867 2422
867 2425
867 2428
867 3761
867 3770
867 3779
867 5195
867 5222
867 5249
868 2343
868 2344
868 2345
868 2376
868 2379
868 2382
868 3787
868 3796
868 3805
868 5195
868 5222
868 5249
869 2271
869 2272
869 2273
869 2360
869 2363
869 2366
869 3732
869 3741
869 3750
869 5195
869 5222
869 5249
870 2346
870 2347
870 2348
870 2369
870 2372
870 2375
870 3761
870 3770
870 3779
870 5197
870 5224
870 5251
871 2274
871 2275
871 2276
871 2404
871 2407
871 2410
871 3787
871 3796
871 3805
871 5197
871 5224
871 5251
872 2310
872 2311
872 2312
872 2385
872 2388
872 2391
872 3732
872 3741
872 3750
872 5197
872 5224
872 5251
873 2280
873 2281
873 2282
873 2394
873 2397
873 2400
873 3753
873 3762
873 3771
873 5206
873 5233
873 5260
874 2316
874 2317
874 2318
874 2351
874 2354
874 2357
874 3782
874 3791
874 3800
874 5206
874 5233
874 5260
875 2325
875 2326
875 2327
875 2413
875 2416
875 2419
875 3727
875 3736
875 3745
875 5206
875 5233
875 5260
876 2319
876 2320
876 2321
876 2422
876 2425
876 2428
876 3753
876 3762
876 3771
876 5208
876 5235
876 5262
877 2328
877 2329
877 2330
877 2376
877 2379
877 2382
877 3782
877 3791
877 3800
877 5208
877 5235
877 5262
878 2283
878 2284
878 2285
878 2360
878 2363
878 2366
878 3727
878 3736
878 3745
878 5208
878 5235
878 5262
879 2322
879 2323
879 2324
879 2369
879 2372
879 2375
879 3753
879 3762
879 3771
879 5204
879 5231
879 5258
880 2277
880 2278
880 2279
880 2404
880 2407
880 2410
880 3782
880 3791
880 3800
880 5204
880 5231
880 5258
881 2313
881 2314
881 2315
881 2385
881 2388
881 2391
881 3727
881 3736
881 3745
881 5204
881 5231
881 5258
882 2292
882 2293
882 2294
882 2394
882 2397
882 2400
882 3757
882 3766
882 3775
882 5186
882 5213
882 5240
883 2301
883 2302
883 2303
883 2351
883 2354
883 2357
883 3783
883 3792
883 3801
883 5186
883 5213
883 5240
884 2337
884 2338
884 2339
884 2413
884 2416
884 2419
884 3731
884 3740
884 3749
884 5186
884 5213
884 5240
885 2295
885 2296
885 2297
885 2422
885 2425
885 2428
885 3757
885 3766
885 3775
885 5188
885 5215
885 5242
886 2331
886 2332
886 2333
886 2376
886 2379
886 2382
886 3783
886 3792
886 3801
886 5188
886 5215
886 5242
887 2286
887 2287
887 2288
887 2360
887 2363
887 2366
887 3731
887 3740
887 3749
887 5188
887 5215
887 5242
888 2334
888 2335
888 2336
888 2369
888 2372
888 2375
888 3757
888 3766
888 3775
888 5190
888 5217
888 5244
889 2289
889 2290
889 2291
889 2404
889 2407
889 2410
889 3783
889 3792
889 3801
889 5190
889 5217
889 5244
890 2298
890 2299
890 2300
890 2385
890 2388
890 2391
890 3731
890 3740
890 3749
890 5190
890 5217
890 5244
891 2349
891 2350
891 2351
891 2430
891 2433
891 2436
891 3807
891 3816
891 3825
891 5265
891 5292
891 5319
892 2385
892 2386
892 2387
892 2495
892 2498
892 2501
892 3836
892 3845
892 3854
892 5265
892 5292
892 5319
893 2421
893 2422
893 2423
893 2476
893 2479
893 2482
893 3862
893 3871
893 3880
893 5265
893 5292
893 5319
894 2388
894 2389
894 2390
894 2458
894 2461
894 2464
894 3807
894 3816
894 3825
894 5270
894 5297
894 5324
895 2424
895 2425
895 2426
895 2439
895 2442
895 2445
895 3836
895 3845
895 3854
895 5270
895 5297
895 5324
896 2352
896 2353
896 2354
896 2504
896 2507
896 2510
896 3862
896 3871
896 3880
896 5270
896 5297
896 5324
897 2427
897 2428
897 2429
897 2486
897 2489
897 2492
897 3807
897 3816
897 3825
897 5272
897 5299
897 5326
898 2355
898 2356
898 2357
898 2467
898 2470
898 2473
898 3836
898 3845
898 3854
898 5272
898 5299
898 5326
899 2391
899 2392
899 2393
899 2448
899 2451
899 2454
899 3862
899 3871
899 3880
899 5272
899 5299
899 5326
900 2361
900 2362
900 2363
900 2430
900 2433
900 2436
900 3811
900 3820
900 3829
900 5281
900 5308
900 5335
901 2397
901 2398
901 2399
901 2495
901 2498
901 2501
901 3837
901 3846
901 3855
901 5281
901 5308
901 5335
902 2406
902 2407
902 2408
902 2476
902 2479
902 2482
902 3866
902 3875
902 3884
902 5281
902 5308
902 5335
903 2400
903 2401
903 2402
903 2458
903 2461
903 2464
903 3811
903 3820
903 3829
903 5274
903 5301
903 5328
904 2409
904 2410
904 2411
904 2439
904 2442
904 2445
904 3837
904 3846
904 3855
904 5274
904 5301
904 5328
905 2364
905 2365
905 2366
905 2504
905 2507
905 2510
905 3866
905 3875
905 3884
905 5274
905 5301
905 5328
906 2403
906 2404
906 2405
906 2486
906 2489
906 2492
906 3811
906 3820
906 3829
906 5279
906 5306
906 5333
907 2358
907 2359
907 2360
907 2467
907 2470
907 2473
907 3837
907 3846
907 3855
907 5279
907 5306
907 5333
908 2394
908 2395
908 2396
908 2448
908 2451
908 2454
908 3866
908 3875
908 3884
908 5279
908 5306
908 5333
909 2373
909 2374
909 2375
909 2430
909 2433
909 2436
909 3815
909 3824
909 3833
909 5288
909 5315
909 5342
910 2382
910 2383
910 2384
910 2495
910 2498
910 2501
910 3841
910 3850
910 3859
910 5288
910 5315
910 5342
911 2418
911 2419
911 2420
911 2476
911 2479
911 2482
911 3867
911 3876
911 3885
911 5288
911 5315
911 5342
912 2376
912 2377
912 2378
912 2458
912 2461
912 2464
912 3815
912 3824
912 3833
912 5290
912 5317
912 5344
913 2412
913 2413
913 2414
913 2439
913 2442
913 2445
913 3841
913 3850
913 3859
913 5290
913 5317
913 5344
914 2367
914 2368
914 2369
914 2504
914 2507
914 2510
914 3867
914 3876
914 3885
914 5290
914 5317
914 5344
915 2415
915 2416
915 2417
915 2486
915 2489
915 2492
915 3815
915 3824
915 3833
915 5283
915 5310
915 5337
916 2370
916 2371
916 2372
916 2467
916 2470
916 2473
916 3841
916 3850
916 3859
916 5283
916 5310
916 5337
917 2379
917 2380
917 2381
917 2448
917 2451
917 2454
917 3867
917 3876
917 3885
917 5283
917 5310
917 5337
918 2349
918 2350
918 2351
918 2493
918 2496
918 2499
918 3865
918 3874
918 3883
918 5286
918 5313
918 5340
919 2385
919 2386
919 2387
919 2477
919 2480
919 2483
919 3810
919 3819
919 3828
919 5286
919 5313
919 5340
920 2421
920 2422
920 2423
920 2431
920 2434
920 2437
920 3839
920 3848
920 3857
920 5286
920 5313
920 5340
921 2388
921 2389
921 2390
921 2440
921 2443
921 2446
921 3865
921 3874
921 3883
921 5291
921 5318
921 5345
922 2424
922 2425
922 2426
922 2502
922 2505
922 2508
922 3810
922 3819
922 3828
922 5291
922 5318
922 5345
923 2352
923 2353
923 2354
923 2459
923 2462
923 2465
923 3839
923 3848
923 3857
923 5291
923 5318
923 5345
924 2427
924 2428
924 2429
924 2468
924 2471
924 2474
924 3865
924 3874
924 3883
924 5284
924 5311
924 5338
925 2355
925 2356
925 2357
925 2449
925 2452
925 2455
925 3810
925 3819
925 3828
925 5284
925 5311
925 5338
926 2391
926 2392
926 2393
926 2484
926 2487
926 2490
926 3839
926 3848
926 3857
926 5284
926 5311
926 5338
927 2361
927 2362
927 2363
927 2493
927 2496
927 2499
927 3869
927 3878
927 3887
927 5266
927 5293
927 5320
928 2397
928 2398
928 2399
928 2477
928 2480
928 2483
928 3814
928 3823
928 3832
928 5266
928 5293
928 5320
929 2406
929 2407
929 2408
929 2431
929 2434
929 2437
929 3840
929 3849
929 3858
929 5266
929 5293
929 5320
930 2400
930 2401
930 2402
930 2440
930 2443
930 2446
930 3869
930 3878
930 3887
930 5268
930 5295
930 5322
931 2409
931 2410
931 2411
931 2502
931 2505
931 2508
931 3814
931 3823
931 3832
931 5268
931 5295
931 5322
932 2364
932 2365
932 2366
932 2459
932 2462
932 2465
932 3840
932 3849
932 3858
932 5268
932 5295
932 5322
933 2403
933 2404
933 2405
933 2468
933 2471
933 2474
933 3869
933 3878
933 3887
933 5273
933 5300
933 5327
934 2358
934 2359
934 2360
934 2449
934 2452
934 2455
934 3814
934 3823
934 3832
934 5273
934 5300
934 5327
935 2394
935 2395
935 2396
935 2484
935 2487
935 2490
935 3840
935 3849
935 3858
935 5273
935 5300
935 5327
936 2373
936 2374
936 2375
936 2493
936 2496
936 2499
936 3861
936 3870
936 3879
936 5282
936 5309
936 5336
937 2382
937 2383
937 2384
937 2477
937 2480
937 2483
937 3809
937 3818
937 3827
937 5282
937 5309
937 5336
938 2418
938 2419
938 2420
938 2431
938 2434
938 2437
938 3835
938 3844
938 3853
938 5282
938 5309
938 5336
939 2376
939 2377
939 2378
939 2440
939 2443
939 2446
939 3861
939 3870
939 3879
939 5275
939 5302
939 5329
940 2412
940 2413
940 2414
940 2502
940 2505
940 2508
940 3809
940 3818
940 3827
940 5275
940 5302
940 5329
941 2367
941 2368
941 2369
941 2459
941 2462
941 2465
941 3835
941 3844
941 3853
941 5275
941 5302
941 5329
942 2415
942 2416
942 2417
942 2468
942 2471
942 2474
942 3861
942 3870
942 3879
942 5277
942 5304
942 5331
943 2370
943 2371
943 2372
943 2449
943 2452
943 2455
943 3809
943 3818
943 3827
943 5277
943 5304
943 5331
944 2379
944 2380
944 2381
944 2484
944 2487
944 2490
944 3835
944 3844
944 3853
944 5277
944 5304
944 5331
945 2349
945 2350
945 2351
945 2475
945 2478
945 2481
945 3842
945 3851
945 3860
945 5280
945 5307
945 5334
946 2385
946 2386
946 2387
946 2432
946 2435
946 2438
946 3868
946 3877
946 3886
946 5280
946 5307
946 5334
947 2421
947 2422
947 2423
947 2494
947 2497
947 2500
947 3813
947 3822
947 3831
947 5280
947 5307
947 5334
948 2388
948 2389
948 2390
948 2503
948 2506
948 2509
948 3842
948 3851
948 3860
948 5276
948 5303
948 5330
949 2424
949 2425
949 2426
949 2457
949 2460
949 2463
949 3868
949 3877
949 3886
949 5276
949 5303
949 5330
950 2352
950 2353
950 2354
950 2441
950 2444
950 2447
950 3813
950 3822
950 3831
950 5276
950 5303
950 5330
951 2427
951 2428
951 2429
951 2450
951 2453
951 2456
951 3842
951 3851
951 3860
951 5278
951 5305
951 5332
952 2355
952 2356
952 2357
952 2485
952 2488
952 2491
952 3868
952 3877
952 3886
952 5278
952 5305
952 5332
953 2391
953 2392
953 2393
953 2466
953 2469
953 2472
953 3813
953 3822
953 3831
953 5278
953 5305
953 5332
954 2361
954 2362
954 2363
954 2475
954 2478
954 2481
954 3834
954 3843
954 3852
954 5287
954 5314
954 5341
955 2397
955 2398
955 2399
955 2432
955 2435
955 2438
955 3863
955 3872
955 3881
955 5287
955 5314
955 5341
956 2406
956 2407
956 2408
956 2494
956 2497
956 2500
956 3808
956 3817
956 3826
956 5287
956 5314
956 5341
957 2400
957 2401
957 2402
957 2503
957 2506
957 2509
957 3834
957 3843
957 3852
957 5289
957 5316
957 5343
958 2409
958 2410
958 2411
958 2457
958 2460
958 2463
958 3863
958 3872
958 3881
958 5289
958 5316
958 5343
959 2364
959 2365
959 2366
959 2441
959 2444
959 2447
959 3808
959 3817
959 3826
959 5289
959 5316
959 5343
960 2403
960 2404
960 2405
960 2450
960 2453
960 2456
960 3834
960 3843
960 3852
960 5285
960 5312
960 5339
961 2358
961 2359
961 2360
961 2485
961 2488
961 2491
961 3863
961 3872
961 3881
961 5285
961 5312
961 5339
962 2394
962 2395
962 2396
962 2466
962 2469
962 2472
962 3808
962 3817
962 3826
962 5285
962 5312
962 5339
963 2373
963 2374
963 2375
963 2475
963 2478
963 2481
963 3838
963 3847
963 3856
963 5267
963 5294
963 5321
964 2382
964 2383
964 2384
964 2432
964 2435
964 2438
964 3864
964 3873
964 3882
964 5267
964 5294
964 5321
965 2418
965 2419
965 2420
965 2494
965 2497
965 2500
965 3812
965 3821
965 3830
965 5267
965 5294
965 5321
966 2376
966 2377
966 2378
966 2503
966 2506
966 2509
966 3838
966 3847
966 3856
966 5269
966 5296
966 5323
967 2412
967 2413
967 2414
967 2457
967 2460
967 2463
967 3864
967 3873
967 3882
967 5269
967 5296
967 5323
968 2367
968 2368
968 2369
968 2441
968 2444
968 2447
968 3812
968 3821
968 3830
968 5269
968 5296
968 5323
969 2415
969 2416
969 2417
969 2450
969 2453
969 2456
969 3838
969 3847
969 3856
969 5271
969 5298
969 5325
970 2370
970 2371
970 2372
970 2485
970 2488
970 2491
970 3864
970 3873
970 3882
970 5271
970 5298
970 5325
971 2379
971 2380
971 2381
971 2466
971 2469
971 2472
971 3812
971 3821
971 3830
971 5271
971 5298
971 5325
972 2430
972 2431
972 2432
972 2511
972 2514
972 2517
972 3888
972 3897
972 3906
972 5346
972 5373
972 5400
973 2466
973 2467
973 2468
973 2576
973 2579
973 2582
973 3917
973 3926
973 3935
973 5346
973 5373
973 5400
974 2502
974 2503
974 2504
974 2557
974 2560
974 2563
974 3943
974 3952
974 3961
974 5346
974 5373
974 5400
975 2469
975 2470
975 2471
975 2539
975 2542
975 2545
975 3888
975 3897
975 3906
975 5351
975 5378
975 5405
976 2505
976 2506
976 2507
976 2520
976 2523
976 2526
976 3917
976 3926
976 3935
976 5351
976 5378
976 5405
977 2433
977 2434
977 2435
977 2585
977 2588
977 2591
977 3943
977 3952
977 3961
977 5351
977 5378
977 5405
978 2508
978 2509
978 2510
978 2567
978 2570
978 2573
978 3888
978 3897
978 3906
978 5353
978 5380
978 5407
979 2436
979 2437
979 2438
979 2548
979 2551
979 2554
979 3917
979 3926
979 3935
979 5353
979 5380
979 5407
980 2472
980 2473
980 2474
980 2529
980 2532
980 2535
980 3943
980 3952
980 3961
980 5353
980 5380
980 5407
981 2442
981 2443
981 2444
981 2511
981 2514
981 2517
981 3892
981 3901
981 3910
981 5362
981 5389
981 5416
982 2478
982 2479
982 2480
982 2576
982 2579
982 2582
982 3918
982 3927
982 3936
982 5362
982 5389
982 5416
983 2487
983 2488
983 2489
983 2557
983 2560
983 2563
983 3947
983 3956
983 3965
983 5362
983 5389
983 5416
984 2481
984 2482
984 2483
984 2539
984 2542
984 2545
984 3892
984 3901
984 3910
984 5355
984 5382
984 5409
985 2490
985 2491
985 2492
985 2520
985 2523
985 2526
985 3918
985 3927
985 3936
985 5355
985 5382
985 5409
986 2445
986 2446
986 2447
986 2585
986 2588
986 2591
986 3947
986 3956
986 3965
986 5355
986 5382
986 5409
987 2484
987 2485
987 2486
987 2567
987 2570
987 2573
987 3892
987 3901
987 3910
987 5360
987 5387
987 5414
988 2439
988 2440
988 2441
988 2548
988 2551
988 2554
988 3918
988 3927
988 3936
988 5360
988 5387
988 5414
989 2475
989 2476
989 2477
989 2529
989 2532
989 2535
989 3947
989 3956
989 3965
989 5360
989 5387
989 5414
990 2454
990 2455
990 2456
990 2511
990 2514
990 2517
990 3896
990 3905
990 3914
990 5369
990 5396
990 5423
991 2463
991 2464
991 2465
991 2576
991 2579
991 2582
991 3922
991 3931
991 3940
991 5369
991 5396
991 5423
992 2499
992 2500
992 2501
992 2557
992 2560
992 2563
992 3948
992 3957
992 3966
992 5369
992 5396
992 5423
993 2457
993 2458
993 2459
993 2539
993 2542
993 2545
993 3896
993 3905
993 3914
993 5371
993 5398
993 5425
994 2493
994 2494
994 2495
994 2520
994 2523
994 2526
994 3922
994 3931
994 3940
994 5371
994 5398
994 5425
995 2448
995 2449
995 2450
995 2585
995 2588
995 2591
995 3948
995 3957
995 3966
995 5371
995 5398
995 5425
996 2496
996 2497
996 2498
996 2567
996 2570
996 2573
996 3896
996 3905
996 3914
996 5364
996 5391
996 5418
997 2451
997 2452
997 2453
997 2548
997 2551
997 2554
997 3922
997 3931
997 3940
997 5364
997 5391
997 5418
998 2460
998 2461
998 2462
998 2529
998 2532
998 2535
998 3948
998 3957
998 3966
998 5364
998 5391
998 5418
999 2430
999 2431
999 2432
999 2574
999 2577
999 2580
999 3946
999 3955
999 3964
999 5367
999 5394
999 5421
1000 2466
1000 2467
1000 2468
1000 2558
1000 2561
1000 2564
1000 3891
1000 3900
1000 3909
1000 5367
1000 5394
1000 5421
1001 2502
1001 2503
1001 2504
1001 2512
1001 2515
1001 2518
1001 3920
1001 3929
1001 3938
1001 5367
1001 5394
1001 5421
1002 2469
1002 2470
1002 2471
1002 2521
1002 2524
1002 2527
1002 3946
1002 3955
1002 3964
1002 5372
1002 5399
1002 5426
1003 2505
1003 2506
1003 2507
1003 2583
1003 2586
1003 2589
1003 3891
1003 3900
1003 3909
1003 5372
1003 5399
1003 5426
1004 2433
1004 2434
1004 2435
1004 2540
1004 2543
1004 2546
1004 3920
1004 3929
1004 3938
1004 5372
1004 5399
1004 5426
1005 2508
1005 2509
1005 2510
1005 2549
1005 2552
1005 2555
1005 3946
1005 3955
1005 3964
1005 5365
1005 5392
1005 5419
1006 2436
1006 2437
1006 2438
1006 2530
1006 2533
1006 2536
1006 3891
1006 3900
1006 3909
1006 5365
1006 5392
1006 5419
1007 2472
1007 2473
1007 2474
1007 2565
1007 2568
1007 2571
1007 3920
1007 3929
1007 3938
1007 5365
1007 5392
1007 5419
1008 2442
1008 2443
1008 2444
1008 2574
1008 2577
1008 2580
1008 3950
1008 3959
1008 3968
1008 5347
1008 5374
1008 5401
1009 2478
1009 2479
1009 2480
1009 2558
1009 2561
1009 2564
1009 3895
1009 3904
1009 3913
1009 5347
1009 5374
1009 5401
1010 2487
1010 2488
1010 2489
1010 2512
1010 2515
1010 2518
1010 3921
1010 3930
1010 3939
1010 5347
1010 5374
1010 5401
1011 2481
1011 2482
1011 2483
1011 2521
1011 2524
1011 2527
1011 3950
1011 3959
1011 3968
1011 5349
1011 5376
1011 5403
1012 2490
1012 2491
1012 2492
1012 2583
1012 2586
1012 2589
1012 3895
1012 3904
1012 3913
1012 5349
1012 5376
1012 5403
1013 2445
1013 2446
1013 2447
1013 2540
1013 2543
1013 2546
1013 3921
1013 3930
1013 3939
1013 5349
1013 5376
1013 5403
1014 2484
1014 2485
1014 2486
1014 2549
1014 2552
1014 2555
1014 3950
1014 3959
1014 3968
1014 5354
1014 5381
1014 5408
1015 2439
1015 2440
1015 2441
1015 2530
1015 2533
1015 2536
1015 3895
1015 3904
1015 3913
1015 5354
1015 5381
1015 5408
1016 2475
1016 2476
1016 2477
1016 2565
1016 2568
1016 2571
1016 3921
1016 3930
1016 3939
1016 5354
1016 5381
1016 5408
1017 2454
1017 2455
1017 2456
1017 2574
1017 2577
1017 2580
1017 3942
1017 3951
1017 3960
1017 5363
1017 5390
1017 5417
1018 2463
1018 2464
1018 2465
1018 2558
1018 2561
1018 2564
1018 3890
1018 3899
1018 3908
1018 5363
1018 5390
1018 5417
1019 2499
1019 2500
1019 2501
1019 2512
1019 2515
1019 2518
1019 3916
1019 3925
1019 3934
1019 5363
1019 5390
1019 5417
1020 2457
1020 2458
1020 2459
1020 2521
1020 2524
1020 2527
1020 3942
1020 3951
1020 3960
1020 5356
1020 5383
1020 5410
1021 2493
1021 2494
1021 2495
1021 2583
1021 2586
1021 2589
1021 3890
1021 3899
1021 3908
1021 5356
1021 5383
1021 5410
1022 2448
1022 2449
1022 2450
1022 2540
1022 2543
1022 2546
1022 3916
1022 3925
1022 3934
1022 5356
1022 5383
1022 5410
1023 2496
1023 2497
1023 2498
1023 2549
1023 2552
1023 2555
1023 3942
1023 3951
1023 3960
1023 5358
1023 5385
1023 5412
1024 2451
1024 2452
1024 2453
1024 2530
1024 2533
1024 2536
1024 3890
1024 3899
1024 3908
1024 5358
1024 5385
1024 5412
1025 2460
1025 2461
1025 2462
1025 2565
1025 2568
1025 2571
1025 3916
1025 3925
1025 3934
1025 5358
1025 5385
1025 5412
1026 2430
1026 2431
1026 2432
1026 2556
1026 2559
1026 2562
1026 3923
1026 3932
1026 3941
1026 5361
1026 5388
1026 5415
1027 2466
1027 2467
1027 2468
1027 2513
1027 2516
1027 2519
1027 3949
1027 3958
1027 3967
1027 5361
1027 5388
1027 5415
1028 2502
1028 2503
1028 2504
1028 2575
1028 2578
1028 2581
1028 3894
1028 3903
1028 3912
1028 5361
1028 5388
1028 5415
1029 2469
1029 2470
1029 2471
1029 2584
1029 2587
1029 2590
1029 3923
1029 3932
1029 3941
1029 5357
1029 5384
1029 5411
1030 2505
1030 2506
1030 2507
1030 2538
1030 2541
1030 2544
1030 3949
1030 3958
1030 3967
1030 5357
1030 5384
1030 5411
1031 2433
1031 2434
1031 2435
1031 2522
1031 2525
1031 2528
1031 3894
1031 3903
1031 3912
1031 5357
1031 5384
1031 5411
1032 2508
1032 2509
1032 2510
1032 2531
1032 2534
1032 2537
1032 3923
1032 3932
1032 3941
1032 5359
1032 5386
1032 5413
1033 2436
1033 2437
1033 2438
1033 2566
1033 2569
1033 2572
1033 3949
1033 3958
1033 3967
1033 5359
1033 5386
1033 5413
1034 2472
1034 2473
1034 2474
1034 2547
1034 2550
1034 2553
1034 3894
1034 3903
1034 3912
1034 5359
1034 5386
1034 5413
1035 2442
1035 2443
1035 2444
1035 2556
1035 2559
1035 2562
1035 3915
1035 3924
1035 3933
1035 5368
1035 5395
1035 5422
1036 2478
1036 2479
1036 2480
1036 2513
1036 2516
1036 2519
1036 3944
1036 3953
1036 3962
1036 5368
1036 5395
1036 5422
1037 2487
1037 2488
1037 2489
1037 2575
1037 2578
1037 2581
1037 3889
1037 3898
1037 3907
1037 5368
1037 5395
1037 5422
1038 2481
1038 2482
1038 2483
1038 2584
1038 2587
1038 2590
1038 3915
1038 3924
1038 3933
1038 5370
1038 5397
1038 5424
1039 2490
1039 2491
1039 2492
1039 2538
1039 2541
1039 2544
1039 3944
1039 3953
1039 3962
1039 5370
1039 5397
1039 5424
1040 2445
1040 2446
1040 2447
1040 2522
1040 2525
1040 2528
1040 3889
1040 3898
1040 3907
1040 5370
1040 5397
1040 5424
1041 2484
1041 2485
1041 2486
1041 2531
1041 2534
1041 2537
1041 3915
1041 3924
1041 3933
1041 5366
1041 5393
1041 5420
1042 2439
1042 2440
1042 2441
1042 2566
1042 2569
1042 2572
1042 3944
1042 3953
1042 3962
1042 5366
1042 5393
1042 5420
1043 2475
1043 2476
1043 2477
1043 2547
1043 2550
1043 2553
1043 3889
1043 3898
1043 3907
1043 5366
1043 5393
1043 5420
1044 2454
1044 2455
1044 2456
1044 2556
1044 2559
1044 2562
1044 3919
1044 3928
1044 3937
1044 5348
1044 5375
1044 5402
1045 2463
1045 2464
1045 2465
1045 2513
1045 2516
1045 2519
1045 3945
1045 3954
1045 3963
1045 5348
1045 5375
1045 5402
1046 2499
1046 2500
1046 2501
1046 2575
1046 2578
1046 2581
1046 3893
1046 3902
1046 3911
1046 5348
1046 5375
1046 5402
1047 2457
1047 2458
1047 2459
1047 2584
1047 2587
1047 2590
1047 3919
1047 3928
1047 3937
1047 5350
1047 5377
1047 5404
1048 2493
1048 2494
1048 2495
1048 2538
1048 2541
1048 2544
1048 3945
1048 3954
1048 3963
1048 5350
1048 5377
1048 5404
1049 2448
1049 2449
1049 2450
1049 2522
1049 2525
1049 2528
1049 3893
1049 3902
1049 3911
1049 5350
1049 5377
1049 5404
1050 2496
1050 2497
1050 2498
1050 2531
1050 2534
1050 2537
1050 3919
1050 3928
1050 3937
1050 5352
1050 5379
1050 5406
1051 2451
1051 2452
1051 2453
1051 2566
1051 2569
1051 2572
1051 3945
1051 3954
1051 3963
1051 5352
1051 5379
1051 5406
1052 2460
1052 2461
1052 2462
1052 2547
1052 2550
1052 2553
1052 3893
1052 3902
1052 3911
1052 5352
1052 5379
1052 5406
1053 2511
1053 2512
1053 2513
1053 2592
1053 2595
1053 2598
1053 3969
1053 3978
1053 3987
1053 5427
1053 5454
1053 5481
1054 2547
1054 2548
1054 2549
1054 2657
1054 2660
1054 2663
1054 3998
1054 4007
1054 4016
1054 5427
1054 5454
1054 5481
1055 2583
1055 2584
1055 2585
1055 2638
1055 2641
1055 2644
1055 4024
1055 4033
1055 4042
1055 5427
1055 5454
1055 5481
1056 2550
1056 2551
1056 2552
1056 2620
1056 2623
1056 2626
1056 3969
1056 3978
1056 3987
1056 5432
1056 5459
1056 5486
1057 2586
1057 2587
1057 2588
1057 2601
1057 2604
1057 2607
1057 3998
1057 4007
1057 4016
1057 5432
1057 5459
1057 5486
1058 2514
1058 2515
1058 2516
1058 2666
1058 2669
1058 2672
1058 4024
1058 4033
1058 4042
1058 5432
1058 5459
1058 5486
1059 2589
1059 2590
1059 2591
1059 2648
1059 2651
1059 2654
1059 3969
1059 3978
1059 3987
1059 5434
1059 5461
1059 5488
1060 2517
1060 2518
1060 2519
1060 2629
1060 2632
1060 2635
1060 3998
1060 4007
1060 4016
1060 5434
1060 5461
1060 5488
1061 2553
1061 2554
1061 2555
1061 2610
1061 2613
1061 2616
1061 4024
1061 4033
1061 4042
1061 5434
1061 5461
1061 5488
1062 2523
1062 2524
1062 2525
1062 2592
1062 2595
1062 2598
1062 3973
1062 3982
1062 3991
1062 5443
1062 5470
1062 5497
1063 2559
1063 2560
1063 2561
1063 2657
1063 2660
1063 2663
1063 3999
1063 4008
1063 4017
1063 5443
1063 5470
1063 5497
1064 2568
1064 2569
1064 2570
1064 2638
1064 2641
1064 2644
1064 4028
1064 4037
1064 4046
1064 5443
1064 5470
1064 5497
1065 2562
1065 2563
1065 2564
1065 2620
1065 2623
1065 2626
1065 3973
1065 3982
1065 3991
1065 5436
1065 5463
1065 5490
1066 2571
1066 2572
1066 2573
1066 2601
1066 2604
1066 2607
1066 3999
1066 4008
1066 4017
1066 5436
1066 5463
1066 5490
1067 2526
1067 2527
1067 2528
1067 2666
1067 2669
1067 2672
1067 4028
1067 4037
1067 4046
1067 5436
1067 5463
1067 5490
1068 2565
1068 2566
1068 2567
1068 2648
1068 2651
1068 2654
1068 3973
1068 3982
1068 3991
1068 5441
1068 5468
1068 5495
1069 2520
1069 2521
1069 2522
1069 2629
1069 2632
1069 2635
1069 3999
1069 4008
1069 4017
1069 5441
1069 5468
1069 5495
1070 2556
1070 2557
1070 2558
1070 2610
1070 2613
1070 2616
1070 4028
1070 4037
1070 4046
1070 5441
1070 5468
1070 5495
1071 2535
1071 2536
1071 2537
1071 2592
1071 2595
1071 2598
1071 3977
1071 3986
1071 3995
1071 5450
1071 5477
1071 5504
1072 2544
1072 2545
1072 2546
1072 2657
1072 2660
1072 2663
1072 4003
1072 4012
1072 4021
1072 5450
1072 5477
1072 5504
1073 2580
1073 2581
1073 2582
1073 2638
1073 2641
1073 2644
1073 4029
1073 4038
1073 4047
1073 5450
1073 5477
1073 5504
1074 2538
1074 2539
1074 2540
1074 2620
1074 2623
1074 2626
1074 3977
1074 3986
1074 3995
1074 5452
1074 5479
1074 5506
1075 2574
1075 2575
1075 2576
1075 2601
1075 2604
1075 2607
1075 4003
1075 4012
1075 4021
1075 5452
1075 5479
1075 5506
1076 2529
1076 2530
1076 2531
1076 2666
1076 2669
1076 2672
1076 4029
1076 4038
1076 4047
1076 5452
1076 5479
1076 5506
1077 2577
1077 2578
1077 2579
1077 2648
1077 2651
1077 2654
1077 3977
1077 3986
1077 3995
1077 5445
1077 5472
1077 5499
1078 2532
1078 2533
1078 2534
1078 2629
1078 2632
1078 2635
1078 4003
1078 4012
1078 4021
1078 5445
1078 5472
1078 5499
1079 2541
1079 2542
1079 2543
1079 2610
1079 2613
1079 2616
1079 4029
1079 4038
1079 4047
1079 5445
1079 5472
1079 5499
1080 2511
1080 2512
1080 2513
1080 2655
1080 2658
1080 2661
1080 4027
1080 4036
1080 4045
1080 5448
1080 5475
1080 5502
1081 2547
1081 2548
1081 2549
1081 2639
1081 2642
1081 2645
1081 3972
1081 3981
1081 3990
1081 5448
1081 5475
1081 5502
1082 2583
1082 2584
1082 2585
1082 2593
1082 2596
1082 2599
1082 4001
1082 4010
1082 4019
1082 5448
1082 5475
1082 5502
1083 2550
1083 2551
1083 2552
1083 2602
1083 2605
1083 2608
1083 4027
1083 4036
1083 4045
1083 5453
1083 5480
1083 5507
1084 2586
1084 2587
1084 2588
1084 2664
1084 2667
1084 2670
1084 3972
1084 3981
1084 3990
1084 5453
1084 5480
1084 5507
1085 2514
1085 2515
1085 2516
1085 2621
1085 2624
1085 2627
1085 4001
1085 4010
1085 4019
1085 5453
1085 5480
1085 5507
1086 2589
1086 2590
1086 2591
1086 2630
1086 2633
1086 2636
1086 4027
1086 4036
1086 4045
1086 5446
1086 5473
1086 5500
1087 2517
1087 2518
1087 2519
1087 2611
1087 2614
1087 2617
1087 3972
1087 3981
1087 3990
1087 5446
1087 5473
1087 5500
1088 2553
1088 2554
1088 2555
1088 2646
1088 2649
1088 2652
1088 4001
1088 4010
1088 4019
1088 5446
1088 5473
1088 5500
1089 2523
1089 2524
1089 2525
1089 2655
1089 2658
1089 2661
1089 4031
1089 4040
1089 4049
1089 5428
1089 5455
1089 5482
1090 2559
1090 2560
1090 2561
1090 2639
1090 2642
1090 2645
1090 3976
1090 3985
1090 3994
1090 5428
1090 5455
1090 5482
1091 2568
1091 2569
1091 2570
1091 2593
1091 2596
1091 2599
1091 4002
1091 4011
1091 4020
1091 5428
1091 5455
1091 5482
1092 2562
1092 2563
1092 2564
1092 2602
1092 2605
1092 2608
1092 4031
1092 4040
1092 4049
1092 5430
1092 5457
1092 5484
1093 2571
1093 2572
1093 2573
1093 2664
1093 2667
1093 2670
1093 3976
1093 3985
1093 3994
1093 5430
1093 5457
1093 5484
1094 2526
1094 2527
1094 2528
1094 2621
1094 2624
1094 2627
1094 4002
1094 4011
1094 4020
1094 5430
1094 5457
1094 5484
1095 2565
1095 2566
1095 2567
1095 2630
1095 2633
1095 2636
1095 4031
1095 4040
1095 4049
1095 5435
1095 5462
1095 5489
1096 2520
1096 2521
1096 2522
1096 2611
1096 2614
1096 2617
1096 3976
1096 3985
1096 3994
1096 5435
1096 5462
1096 5489
1097 2556
1097 2557
1097 2558
1097 2646
1097 2649
1097 2652
1097 4002
1097 4011
1097 4020
1097 5435
1097 5462
1097 5489
1098 2535
1098 2536
1098 2537
1098 2655
1098 2658
1098 2661
1098 4023
1098 4032
1098 4041
1098 5444
1098 5471
1098 5498
1099 2544
1099 2545
1099 2546
1099 2639
1099 2642
1099 2645
1099 3971
1099 3980
1099 3989
1099 5444
1099 5471
1099 5498
1100 2580
1100 2581
1100 2582
1100 2593
1100 2596
1100 2599
1100 3997
1100 4006
1100 4015
1100 5444
1100 5471
1100 5498
1101 2538
1101 2539
1101 2540
1101 2602
1101 2605
1101 2608
1101 4023
1101 4032
1101 4041
1101 5437
1101 5464
1101 5491
1102 2574
1102 2575
1102 2576
1102 2664
1102 2667
1102 2670
1102 3971
1102 3980
1102 3989
1102 5437
1102 5464
1102 5491
1103 2529
1103 2530
1103 2531
1103 2621
1103 2624
1103 2627
1103 3997
1103 4006
1103 4015
1103 5437
1103 5464
1103 5491
1104 2577
1104 2578
1104 2579
1104 2630
1104 2633
1104 2636
1104 4023
1104 4032
1104 4041
1104 5439
1104 5466
1104 5493
1105 2532
1105 2533
1105 2534
1105 2611
1105 2614
1105 2617
1105 3971
1105 3980
1105 3989
1105 5439
1105 5466
1105 5493
1106 2541
1106 2542
1106 2543
1106 2646
1106 2649
1106 2652
1106 3997
1106 4006
1106 4015
1106 5439
1106 5466
1106 5493
1107 2511
1107 2512
1107 2513
1107 2637
1107 2640
1107 2643
1107 4004
1107 4013
1107 4022
1107 5442
1107 5469
1107 5496
1108 2547
1108 2548
1108 2549
1108 2594
1108 2597
1108 2600
1108 4030
1108 4039
1108 4048
1108 5442
1108 5469
1108 5496
1109 2583
1109 2584
1109 2585
1109 2656
1109 2659
1109 2662
1109 3975
1109 3984
1109 3993
1109 5442
1109 5469
1109 5496
1110 2550
1110 2551
1110 2552
1110 2665
1110 2668
1110 2671
1110 4004
1110 4013
1110 4022
1110 5438
1110 5465
1110 5492
1111 2586
1111 2587
1111 2588
1111 2619
1111 2622
1111 2625
1111 4030
1111 4039
1111 4048
1111 5438
1111 5465
1111 5492
1112 2514
1112 2515
1112 2516
1112 2603
1112 2606
1112 2609
1112 3975
1112 3984
1112 3993
1112 5438
1112 5465
1112 5492
1113 2589
1113 2590
1113 2591
1113 2612
1113 2615
1113 2618
1113 4004
1113 4013
1113 4022
1113 5440
1113 5467
1113 5494
1114 2517
1114 2518
1114 2519
1114 2647
1114 2650
1114 2653
1114 4030
1114 4039
1114 4048
1114 5440
1114 5467
1114 5494
1115 2553
1115 2554
1115 2555
1115 2628
1115 2631
1115 2634
1115 3975
1115 3984
1115 3993
1115 5440
1115 5467
1115 5494
1116 2523
1116 2524
1116 2525
1116 2637
1116 2640
1116 2643
1116 3996
1116 4005
1116 4014
1116 5449
1116 5476
1116 5503
1117 2559
1117 2560
1117 2561
1117 2594
1117 2597
1117 2600
1117 4025
1117 4034
1117 4043
1117 5449
1117 5476
1117 5503
1118 2568
1118 2569
1118 2570
1118 2656
1118 2659
1118 2662
1118 3970
1118 3979
1118 3988
1118 5449
1118 5476
1118 5503
1119 2562
1119 2563
1119 2564
1119 2665
1119 2668
1119 2671
1119 3996
1119 4005
1119 4014
1119 5451
1119 5478
1119 5505
1120 2571
1120 2572
1120 2573
1120 2619
1120 2622
1120 2625
1120 4025
1120 4034
1120 4043
1120 5451
1120 5478
1120 5505
1121 2526
1121 2527
1121 2528
1121 2603
1121 2606
1121 2609
1121 3970
1121 3979
1121 3988
1121 5451
1121 5478
1121 5505
1122 2565
1122 2566
1122 2567
1122 2612
1122 2615
1122 2618
1122 3996
1122 4005
1122 4014
1122 5447
1122 5474
1122 5501
1123 2520
1123 2521
1123 2522
1123 2647
1123 2650
1123 2653
1123 4025
1123 4034
1123 4043
1123 5447
1123 5474
1123 5501
1124 2556
1124 2557
1124 2558
1124 2628
1124 2631
1124 2634
1124 3970
1124 3979
1124 3988
1124 5447
1124 5474
1124 5501
1125 2535
1125 2536
1125 2537
1125 2637
1125 2640
1125 2643
1125 4000
1125 4009
1125 4018
1125 5429
1125 5456
1125 5483
1126 2544
1126 2545
1126 2546
1126 2594
1126 2597
1126 2600
1126 4026
1126 4035
1126 4044
1126 5429
1126 5456
1126 5483
1127 2580
1127 2581
1127 2582
1127 2656
1127 2659
1127 2662
1127 3974
1127 3983
1127 3992
1127 5429
1127 5456
1127 5483
1128 2538
1128 2539
1128 2540
1128 2665
1128 2668
1128 2671
1128 4000
1128 4009
1128 4018
1128 5431
1128 5458
1128 5485
1129 2574
1129 2575
1129 2576
1129 2619
1129 2622
1129 2625
1129 4026
1129 4035
1129 4044
1129 5431
1129 5458
1129 5485
1130 2529
1130 2530
1130 2531
1130 2603
1130 2606
1130 2609
1130 3974
1130 3983
1130 3992
1130 5431
1130 5458
1130 5485
1131 2577
1131 2578
1131 2579
1131 2612
1131 2615
1131 2618
1131 4000
1131 4009
1131 4018
1131 5433
1131 5460
1131 5487
1132 2532
1132 2533
1132 2534
1132 2647
1132 2650
1132 2653
1132 4026
1132 4035
1132 4044
1132 5433
1132 5460
1132 5487
1133 2541
1133 2542
1133 2543
1133 2628
1133 2631
1133 2634
1133 3974
1133 3983
1133 3992
1133 5433
1133 5460
1133 5487
1134 2592
1134 2593
1134 2594
1134 2673
1134 2676
1134 2679
1134 4050
1134 4059
1134 4068
1134 5508
1134 5535
1134 5562
1135 2628
1135 2629
1135 2630
1135 2738
1135 2741
1135 2744
1135 4079
1135 4088
1135 4097
1135 5508
1135 5535
1135 5562
1136 2664
1136 2665
1136 2666
1136 2719
1136 2722
1136 2725
1136 4105
1136 4114
1136 4123
1136 5508
1136 5535
1136 5562
1137 2631
1137 2632
1137 2633
1137 2701
1137 2704
1137 2707
1137 4050
1137 4059
1137 4068
1137 5513
1137 5540
1137 5567
1138 2667
1138 2668
1138 2669
1138 2682
1138 2685
1138 2688
1138 4079
1138 4088
1138 4097
1138 5513
1138 5540
1138 5567
1139 2595
1139 2596
1139 2597
1139 2747
1139 2750
1139 2753
1139 4105
1139 4114
1139 4123
1139 5513
1139 5540
1139 5567
1140 2670
1140 2671
1140 2672
1140 2729
1140 2732
1140 2735
1140 4050
1140 4059
1140 4068
1140 5515
1140 5542
1140 5569
1141 2598
1141 2599
1141 2600
1141 2710
1141 2713
1141 2716
1141 4079
1141 4088
1141 4097
1141 5515
1141 5542
1141 5569
1142 2634
1142 2635
1142 2636
1142 2691
1142 2694
1142 2697
1142 4105
1142 4114
1142 4123
1142 5515
1142 5542
1142 5569
1143 2604
1143 2605
1143 2606
1143 2673
1143 2676
1143 2679
1143 4054
1143 4063
1143 4072
1143 5524
1143 5551
1143 5578
1144 2640
1144 2641
1144 2642
1144 2738
1144 2741
1144 2744
1144 4080
1144 4089
1144 4098
1144 5524
1144 5551
1144 5578
1145 2649
1145 2650
1145 2651
1145 2719
1145 2722
1145 2725
1145 4109
1145 4118
1145 4127
1145 5524
1145 5551
1145 5578
1146 2643
1146 2644
1146 2645
1146 2701
1146 2704
1146 2707
1146 4054
1146 4063
1146 4072
1146 5517
1146 5544
1146 5571
1147 2652
1147 2653
1147 2654
1147 2682
1147 2685
1147 2688
1147 4080
1147 4089
1147 4098
1147 5517
1147 5544
1147 5571
1148 2607
1148 2608
1148 2609
1148 2747
1148 2750
1148 2753
1148 4109
1148 4118
1148 4127
1148 5517
1148 5544
1148 5571
1149 2646
1149 2647
1149 2648
1149 2729
1149 2732
1149 2735
1149 4054
1149 4063
1149 4072
1149 5522
1149 5549
1149 5576
1150 2601
1150 2602
1150 2603
1150 2710
1150 2713
1150 2716
1150 4080
1150 4089
1150 4098
1150 5522
1150 5549
1150 5576
1151 2637
1151 2638
1151 2639
1151 2691
1151 2694
1151 2697
1151 4109
1151 4118
1151 4127
1151 5522
1151 5549
1151 5576
1152 2616
1152 2617
1152 2618
1152 2673
1152 2676
1152 2679
1152 4058
1152 4067
1152 4076
1152 5531
1152 5558
1152 5585
1153 2625
1153 2626
1153 2627
1153 2738
1153 2741
1153 2744
1153 4084
1153 4093
1153 4102
1153 5531
1153 5558
1153 5585
1154 2661
1154 2662
1154 2663
1154 2719
1154 2722
1154 2725
1154 4110
1154 4119
1154 4128
1154 5531
1154 5558
1154 5585
1155 2619
1155 2620
1155 2621
1155 2701
1155 2704
1155 2707
1155 4058
1155 4067
1155 4076
1155 5533
1155 5560
1155 5587
1156 2655
1156 2656
1156 2657
1156 2682
1156 2685
1156 2688
1156 4084
1156 4093
1156 4102
1156 5533
1156 5560
1156 5587
1157 2610
1157 2611
1157 2612
1157 2747
1157 2750
1157 2753
1157 4110
1157 4119
1157 4128
1157 5533
1157 5560
1157 5587
1158 2658
1158 2659
1158 2660
1158 2729
1158 2732
1158 2735
1158 4058
1158 4067
1158 4076
1158 5526
1158 5553
1158 5580
1159 2613
1159 2614
1159 2615
1159 2710
1159 2713
1159 2716
1159 4084
1159 4093
1159 4102
1159 5526
1159 5553
1159 5580
1160 2622
1160 2623
1160 2624
1160 2691
1160 2694
1160 2697
1160 4110
1160 4119
1160 4128
1160 5526
1160 5553
1160 5580
1161 2592
1161 2593
1161 2594
1161 2736
1161 2739
1161 2742
1161 4108
1161 4117
1161 4126
1161 5529
1161 5556
1161 5583
1162 2628
1162 2629
1162 2630
1162 2720
1162 2723
1162 2726
1162 4053
1162 4062
1162 4071
1162 5529
1162 5556
1162 5583
1163 2664
1163 2665
1163 2666
1163 2674
1163 2677
1163 2680
1163 4082
1163 4091
1163 4100
1163 5529
1163 5556
1163 5583
1164 2631
1164 2632
1164 2633
1164 2683
1164 2686
1164 2689
1164 4108
1164 4117
1164 4126
1164 5534
1164 5561
1164 5588
1165 2667
1165 2668
1165 2669
1165 2745
1165 2748
1165 2751
1165 4053
1165 4062
1165 4071
1165 5534
1165 5561
1165 5588
1166 2595
1166 2596
1166 2597
1166 2702
1166 2705
1166 2708
1166 4082
1166 4091
1166 4100
1166 5534
1166 5561
1166 5588
1167 2670
1167 2671
1167 2672
1167 2711
1167 2714
1167 2717
1167 4108
1167 4117
1167 4126
1167 5527
1167 5554
1167 5581
1168 2598
1168 2599
1168 2600
1168 2692
1168 2695
1168 2698
1168 4053
1168 4062
1168 4071
1168 5527
1168 5554
1168 5581
1169 2634
1169 2635
1169 2636
1169 2727
1169 2730
1169 2733
1169 4082
1169 4091
1169 4100
1169 5527
1169 5554
1169 5581
1170 2604
1170 2605
1170 2606
1170 2736
1170 2739
1170 2742
1170 4112
1170 4121
1170 4130
1170 5509
1170 5536
1170 5563
1171 2640
1171 2641
1171 2642
1171 2720
1171 2723
1171 2726
1171 4057
1171 4066
1171 4075
1171 5509
1171 5536
1171 5563
1172 2649
1172 2650
1172 2651
1172 2674
1172 2677
1172 2680
1172 4083
1172 4092
1172 4101
1172 5509
1172 5536
1172 5563
1173 2643
1173 2644
1173 2645
1173 2683
1173 2686
1173 2689
1173 4112
1173 4121
1173 4130
1173 5511
1173 5538
1173 5565
1174 2652
1174 2653
1174 2654
1174 2745
1174 2748
1174 2751
1174 4057
1174 4066
1174 4075
1174 5511
1174 5538
1174 5565
1175 2607
1175 2608
1175 2609
1175 2702
1175 2705
1175 2708
1175 4083
1175 4092
1175 4101
1175 5511
1175 5538
1175 5565
1176 2646
1176 2647
1176 2648
1176 2711
1176 2714
1176 2717
1176 4112
1176 4121
1176 4130
1176 5516
1176 5543
1176 5570
1177 2601
1177 2602
1177 2603
1177 2692
1177 2695
1177 2698
1177 4057
1177 4066
1177 4075
1177 5516
1177 5543
1177 5570
1178 2637
1178 2638
1178 2639
1178 2727
1178 2730
1178 2733
1178 4083
1178 4092
1178 4101
1178 5516
1178 5543
1178 5570
1179 2616
1179 2617
1179 2618
1179 2736
1179 2739
1179 2742
1179 4104
1179 4113
1179 4122
1179 5525
1179 5552
1179 5579
1180 2625
1180 2626
1180 2627
1180 2720
1180 2723
1180 2726
1180 4052
1180 4061
1180 4070
1180 5525
1180 5552
1180 5579
1181 2661
1181 2662
1181 2663
1181 2674
1181 2677
1181 2680
1181 4078
1181 4087
1181 4096
1181 5525
1181 5552
1181 5579
1182 2619
1182 2620
1182 2621
1182 2683
1182 2686
1182 2689
1182 4104
1182 4113
1182 4122
1182 5518
1182 5545
1182 5572
1183 2655
1183 2656
1183 2657
1183 2745
1183 2748
1183 2751
1183 4052
1183 4061
1183 4070
1183 5518
1183 5545
1183 5572
1184 2610
1184 2611
1184 2612
1184 2702
1184 2705
1184 2708
1184 4078
1184 4087
1184 4096
1184 5518
1184 5545
1184 5572
1185 2658
1185 2659
1185 2660
1185 2711
1185 2714
1185 2717
1185 4104
1185 4113
1185 4122
1185 5520
1185 5547
1185 5574
1186 2613
1186 2614
1186 2615
1186 2692
1186 2695
1186 2698
1186 4052
1186 4061
1186 4070
1186 5520
1186 5547
1186 5574
1187 2622
1187 2623
1187 2624
1187 2727
1187 2730
1187 2733
1187 4078
1187 4087
1187 4096
1187 5520
1187 5547
1187 5574
1188 2592
1188 2593
1188 2594
1188 2718
1188 2721
1188 2724
1188 4085
1188 4094
1188 4103
1188 5523
1188 5550
1188 5577
1189 2628
1189 2629
1189 2630
1189 2675
1189 2678
1189 2681
1189 4111
1189 4120
1189 4129
1189 5523
1189 5550
1189 5577
1190 2664
1190 2665
1190 2666
1190 2737
1190 2740
1190 2743
1190 4056
1190 4065
1190 4074
1190 5523
1190 5550
1190 5577
1191 2631
1191 2632
1191 2633
1191 2746
1191 2749
1191 2752
1191 4085
1191 4094
1191 4103
1191 5519
1191 5546
1191 5573
1192 2667
1192 2668
1192 2669
1192 2700
1192 2703
1192 2706
1192 4111
1192 4120
1192 4129
1192 5519
1192 5546
1192 5573
1193 2595
1193 2596
1193 2597
1193 2684
1193 2687
1193 2690
1193 4056
1193 4065
1193 4074
1193 5519
1193 5546
1193 5573
1194 2670
1194 2671
1194 2672
1194 2693
1194 2696
1194 2699
1194 4085
1194 4094
1194 4103
1194 5521
1194 5548
1194 5575
1195 2598
1195 2599
1195 2600
1195 2728
1195 2731
1195 2734
1195 4111
1195 4120
1195 4129
1195 5521
1195 5548
1195 5575
1196 2634
1196 2635
1196 2636
1196 2709
1196 2712
1196 2715
1196 4056
1196 4065
1196 4074
1196 5521
1196 5548
1196 5575
1197 2604
1197 2605
1197 2606
1197 2718
1197 2721
1197 2724
1197 4077
1197 4086
1197 4095
1197 5530
1197 5557
1197 5584
1198 2640
1198 2641
1198 2642
1198 2675
1198 2678
1198 2681
1198 4106
1198 4115
1198 4124
1198 5530
1198 5557
1198 5584
1199 2649
1199 2650
1199 2651
1199 2737
1199 2740
1199 2743
1199 4051
1199 4060
1199 4069
1199 5530
1199 5557
1199 5584
1200 2643
1200 2644
1200 2645
1200 2746
1200 2749
1200 2752
1200 4077
1200 4086
1200 4095
1200 5532
1200 5559
1200 5586
1201 2652
1201 2653
1201 2654
1201 2700
1201 2703
1201 2706
1201 4106
1201 4115
1201 4124
1201 5532
1201 5559
1201 5586
1202 2607
1202 2608
1202 2609
1202 2684
1202 2687
1202 2690
1202 4051
1202 4060
1202 4069
1202 5532
1202 5559
1202 5586
1203 2646
1203 2647
1203 2648
1203 2693
1203 2696
1203 2699
1203 4077
1203 4086
1203 4095
1203 5528
1203 5555
1203 5582
1204 2601
1204 2602
1204 2603
1204 2728
1204 2731
1204 2734
1204 4106
1204 4115
1204 4124
1204 5528
1204 5555
1204 5582
1205 2637
1205 2638
1205 2639
1205 2709
1205 2712
1205 2715
1205 4051
1205 4060
1205 4069
1205 5528
1205 5555
1205 5582
1206 2616
1206 2617
1206 2618
1206 2718
1206 2721
1206 2724
1206 4081
1206 4090
1206 4099
1206 5510
1206 5537
1206 5564
1207 2625
1207 2626
1207 2627
1207 2675
1207 2678
1207 2681
1207 4107
1207 4116
1207 4125
1207 5510
1207 5537
1207 5564
1208 2661
1208 2662
1208 2663
1208 2737
1208 2740
1208 2743
1208 4055
1208 4064
1208 4073
1208 5510
1208 5537
1208 5564
1209 2619
1209 2620
1209 2621
1209 2746
1209 2749
1209 2752
1209 4081
1209 4090
1209 4099
1209 5512
1209 5539
1209 5566
1210 2655
1210 2656
1210 2657
1210 2700
1210 2703
1210 2706
1210 4107
1210 4116
1210 4125
1210 5512
1210 5539
1210 5566
1211 2610
1211 2611
1211 2612
1211 2684
1211 2687
1211 2690
1211 4055
1211 4064
1211 4073
1211 5512
1211 5539
1211 5566
1212 2658
1212 2659
1212 2660
1212 2693
1212 2696
1212 2699
1212 4081
1212 4090
1212 4099
1212 5514
1212 5541
1212 5568
1213 2613
1213 2614
1213 2615
1213 2728
1213 2731
1213 2734
1213 4107
1213 4116
1213 4125
1213 5514
1213 5541
1213 5568
1214 2622
1214 2623
1214 2624
1214 2709
1214 2712
1214 2715
1214 4055
1214 4064
1214 4073
1214 5514
1214 5541
1214 5568
1215 2673
1215 2674
1215 2675
1215 2754
1215 2757
1215 2760
1215 4131
1215 4140
1215 4149
1215 5589
1215 5616
1215 5643
1216 2709
1216 2710
1216 2711
1216 2819
1216 2822
1216 2825
1216 4160
1216 4169
1216 4178
1216 5589
1216 5616
1216 5643
1217 2745
1217 2746
1217 2747
1217 2800
1217 2803
1217 2806
1217 4186
1217 4195
1217 4204
1217 5589
1217 5616
1217 5643
1218 2712
1218 2713
1218 2714
1218 2782
1218 2785
1218 2788
1218 4131
1218 4140
1218 4149
1218 5594
1218 5621
1218 5648
1219 2748
1219 2749
1219 2750
1219 2763
1219 2766
1219 2769
1219 4160
1219 4169
1219 4178
1219 5594
1219 5621
1219 5648
1220 2676
1220 2677
1220 2678
1220 2828
1220 2831
1220 2834
1220 4186
1220 4195
1220 4204
1220 5594
1220 5621
1220 5648
1221 2751
1221 2752
1221 2753
1221 2810
1221 2813
1221 2816
1221 4131
1221 4140
1221 4149
1221 5596
1221 5623
1221 5650
1222 2679
1222 2680
1222 2681
1222 2791
1222 2794
1222 2797
1222 4160
1222 4169
1222 4178
1222 5596
1222 5623
1222 5650
1223 2715
1223 2716
1223 2717
1223 2772
1223 2775
1223 2778
1223 4186
1223 4195
1223 4204
1223 5596
1223 5623
1223 5650
1224 2685
1224 2686
1224 2687
1224 2754
1224 2757
1224 2760
1224 4135
1224 4144
1224 4153
1224 5605
1224 5632
1224 5659
1225 2721
1225 2722
1225 2723
1225 2819
1225 2822
1225 2825
1225 4161
1225 4170
1225 4179
1225 5605
1225 5632
1225 5659
1226 2730
1226 2731
1226 2732
1226 2800
1226 2803
1226 2806
1226 4190
1226 4199
1226 4208
1226 5605
1226 5632
1226 5659
1227 2724
1227 2725
1227 2726
1227 2782
1227 2785
1227 2788
1227 4135
1227 4144
1227 4153
1227 5598
1227 5625
1227 5652
1228 2733
1228 2734
1228 2735
1228 2763
1228 2766
1228 2769
1228 4161
1228 4170
1228 4179
1228 5598
1228 5625
1228 5652
1229 2688
1229 2689
1229 2690
1229 2828
1229 2831
1229 2834
1229 4190
1229 4199
1229 4208
1229 5598
1229 5625
1229 5652
1230 2727
1230 2728
1230 2729
1230 2810
1230 2813
1230 2816
1230 4135
1230 4144
1230 4153
1230 5603
1230 5630
1230 5657
1231 2682
1231 2683
1231 2684
1231 2791
1231 2794
1231 2797
1231 4161
1231 4170
1231 4179
1231 5603
1231 5630
1231 5657
1232 2718
1232 2719
1232 2720
1232 2772
1232 2775
1232 2778
1232 4190
1232 4199
1232 4208
1232 5603
1232 5630
1232 5657
1233 2697
1233 2698
1233 2699
1233 2754
1233 2757
1233 2760
1233 4139
1233 4148
1233 4157
1233 5612
1233 5639
1233 5666
1234 2706
1234 2707
1234 2708
1234 2819
1234 2822
1234 2825
1234 4165
1234 4174
1234 4183
1234 5612
1234 5639
1234 5666
1235 2742
1235 2743
1235 2744
1235 2800
1235 2803
1235 2806
1235 4191
1235 4200
1235 4209
1235 5612
1235 5639
1235 5666
1236 2700
1236 2701
1236 2702
1236 2782
1236 2785
1236 2788
1236 4139
1236 4148
1236 4157
1236 5614
1236 5641
1236 5668
1237 2736
1237 2737
1237 2738
1237 2763
1237 2766
1237 2769
1237 4165
1237 4174
1237 4183
1237 5614
1237 5641
1237 5668
1238 2691
1238 2692
1238 2693
1238 2828
1238 2831
1238 2834
1238 4191
1238 4200
1238 4209
1238 5614
1238 5641
1238 5668
1239 2739
1239 2740
1239 2741
1239 2810
1239 2813
1239 2816
1239 4139
1239 4148
1239 4157
1239 5607
1239 5634
1239 5661
1240 2694
1240 2695
1240 2696
1240 2791
1240 2794
1240 2797
1240 4165
1240 4174
1240 4183
1240 5607
1240 5634
1240 5661
1241 2703
1241 2704
1241 2705
1241 2772
1241 2775
1241 2778
1241 4191
1241 4200
1241 4209
1241 5607
1241 5634
1241 5661
1242 2673
1242 2674
1242 2675
1242 2817
1242 2820
1242 2823
1242 4189
1242 4198
1242 4207
1242 5610
1242 5637
1242 5664
1243 2709
1243 2710
1243 2711
1243 2801
1243 2804
1243 2807
1243 4134
1243 4143
1243 4152
1243 5610
1243 5637
1243 5664
1244 2745
1244 2746
1244 2747
1244 2755
1244 2758
1244 2761
1244 4163
1244 4172
1244 4181
1244 5610
1244 5637
1244 5664
1245 2712
1245 2713
1245 2714
1245 2764
1245 2767
1245 2770
1245 4189
1245 4198
1245 4207
1245 5615
1245 5642
1245 5669
1246 2748
1246 2749
1246 2750
1246 2826
1246 2829
1246 2832
1246 4134
1246 4143
1246 4152
1246 5615
1246 5642
1246 5669
1247 2676
1247 2677
1247 2678
1247 2783
1247 2786
1247 2789
1247 4163
1247 4172
1247 4181
1247 5615
1247 5642
1247 5669
1248 2751
1248 2752
1248 2753
1248 2792
1248 2795
1248 2798
1248 4189
1248 4198
1248 4207
1248 5608
1248 5635
1248 5662
1249 2679
1249 2680
1249 2681
1249 2773
1249 2776
1249 2779
1249 4134
1249 4143
1249 4152
1249 5608
1249 5635
1249 5662
1250 2715
1250 2716
1250 2717
1250 2808
1250 2811
1250 2814
1250 4163
1250 4172
1250 4181
1250 5608
1250 5635
1250 5662
1251 2685
1251 2686
1251 2687
1251 2817
1251 2820
1251 2823
1251 4193
1251 4202
1251 4211
1251 5590
1251 5617
1251 5644
1252 2721
1252 2722
1252 2723
1252 2801
1252 2804
1252 2807
1252 4138
1252 4147
1252 4156
1252 5590
1252 5617
1252 5644
1253 2730
1253 2731
1253 2732
1253 2755
1253 2758
1253 2761
1253 4164
1253 4173
1253 4182
1253 5590
1253 5617
1253 5644
1254 2724
1254 2725
1254 2726
1254 2764
1254 2767
1254 2770
1254 4193
1254 4202
1254 4211
1254 5592
1254 5619
1254 5646
1255 2733
1255 2734
1255 2735
1255 2826
1255 2829
1255 2832
1255 4138
1255 4147
1255 4156
1255 5592
1255 5619
1255 5646
1256 2688
1256 2689
1256 2690
1256 2783
1256 2786
1256 2789
1256 4164
1256 4173
1256 4182
1256 5592
1256 5619
1256 5646
1257 2727
1257 2728
1257 2729
1257 2792
1257 2795
1257 2798
1257 4193
1257 4202
1257 4211
1257 5597
1257 5624
1257 5651
1258 2682
1258 2683
1258 2684
1258 2773
1258 2776
1258 2779
1258 4138
1258 4147
1258 4156
1258 5597
1258 5624
1258 5651
1259 2718
1259 2719
1259 2720
1259 2808
1259 2811
1259 2814
1259 4164
1259 4173
1259 4182
1259 5597
1259 5624
1259 5651
1260 2697
1260 2698
1260 2699
1260 2817
1260 2820
1260 2823
1260 4185
1260 4194
1260 4203
1260 5606
1260 5633
1260 5660
1261 2706
1261 2707
1261 2708
1261 2801
1261 2804
1261 2807
1261 4133
1261 4142
1261 4151
1261 5606
1261 5633
1261 5660
1262 2742
1262 2743
1262 2744
1262 2755
1262 2758
1262 2761
1262 4159
1262 4168
1262 4177
1262 5606
1262 5633
1262 5660
1263 2700
1263 2701
1263 2702
1263 2764
1263 2767
1263 2770
1263 4185
1263 4194
1263 4203
1263 5599
1263 5626
1263 5653
1264 2736
1264 2737
1264 2738
1264 2826
1264 2829
1264 2832
1264 4133
1264 4142
1264 4151
1264 5599
1264 5626
1264 5653
1265 2691
1265 2692
1265 2693
1265 2783
1265 2786
1265 2789
1265 4159
1265 4168
1265 4177
1265 5599
1265 5626
1265 5653
1266 2739
1266 2740
1266 2741
1266 2792
1266 2795
1266 2798
1266 4185
1266 4194
1266 4203
1266 5601
1266 5628
1266 5655
1267 2694
1267 2695
1267 2696
1267 2773
1267 2776
1267 2779
1267 4133
1267 4142
1267 4151
1267 5601
1267 5628
1267 5655
1268 2703
1268 2704
1268 2705
1268 2808
1268 2811
1268 2814
1268 4159
1268 4168
1268 4177
1268 5601
1268 5628
1268 5655
1269 2673
1269 2674
1269 2675
1269 2799
1269 2802
1269 2805
1269 4166
1269 4175
1269 4184
1269 5604
1269 5631
1269 5658
1270 2709
1270 2710
1270 2711
1270 2756
1270 2759
1270 2762
1270 4192
1270 4201
1270 4210
1270 5604
1270 5631
1270 5658
1271 2745
1271 2746
1271 2747
1271 2818
1271 2821
1271 2824
1271 4137
1271 4146
1271 4155
1271 5604
1271 5631
1271 5658
1272 2712
1272 2713
1272 2714
1272 2827
1272 2830
1272 2833
1272 4166
1272 4175
1272 4184
1272 5600
1272 5627
1272 5654
1273 2748
1273 2749
1273 2750
1273 2781
1273 2784
1273 2787
1273 4192
1273 4201
1273 4210
1273 5600
1273 5627
1273 5654
1274 2676
1274 2677
1274 2678
1274 2765
1274 2768
1274 2771
1274 4137
1274 4146
1274 4155
1274 5600
1274 5627
1274 5654
1275 2751
1275 2752
1275 2753
1275 2774
1275 2777
1275 2780
1275 4166
1275 4175
1275 4184
1275 5602
1275 5629
1275 5656
1276 2679
1276 2680
1276 2681
1276 2809
1276 2812
1276 2815
1276 4192
1276 4201
1276 4210
1276 5602
1276 5629
1276 5656
1277 2715
1277 2716
1277 2717
1277 2790
1277 2793
1277 2796
1277 4137
1277 4146
1277 4155
1277 5602
1277 5629
1277 5656
1278 2685
1278 2686
1278 2687
1278 2799
1278 2802
1278 2805
1278 4158
1278 4167
1278 4176
1278 5611
1278 5638
1278 5665
1279 2721
1279 2722
1279 2723
1279 2756
1279 2759
1279 2762
1279 4187
1279 4196
1279 4205
1279 5611
1279 5638
1279 5665
1280 2730
1280 2731
1280 2732
1280 2818
1280 2821
1280 2824
1280 4132
1280 4141
1280 4150
1280 5611
1280 5638
1280 5665
1281 2724
1281 2725
1281 2726
1281 2827
1281 2830
1281 2833
1281 4158
1281 4167
1281 4176
1281 5613
1281 5640
1281 5667
1282 2733
1282 2734
1282 2735
1282 2781
1282 2784
1282 2787
1282 4187
1282 4196
1282 4205
1282 5613
1282 5640
1282 5667
1283 2688
1283 2689
1283 2690
1283 2765
1283 2768
1283 2771
1283 4132
1283 4141
1283 4150
1283 5613
1283 5640
1283 5667
1284 2727
1284 2728
1284 2729
1284 2774
1284 2777
1284 2780
1284 4158
1284 4167
1284 4176
1284 5609
1284 5636
1284 5663
1285 2682
1285 2683
1285 2684
1285 2809
1285 2812
1285 2815
1285 4187
1285 4196
1285 4205
1285 5609
1285 5636
1285 5663
1286 2718
1286 2719
1286 2720
1286 2790
1286 2793
1286 2796
1286 4132
1286 4141
1286 4150
1286 5609
1286 5636
1286 5663
1287 2697
1287 2698
1287 2699
1287 2799
1287 2802
1287 2805
1287 4162
1287 4171
1287 4180
1287 5591
1287 5618
1287 5645
1288 2706
1288 2707
1288 2708
1288 2756
1288 2759
1288 2762
1288 4188
1288 4197
1288 4206
1288 5591
1288 5618
1288 5645
1289 2742
1289 2743
1289 2744
1289 2818
1289 2821
1289 2824
1289 4136
1289 4145
1289 4154
1289 5591
1289 5618
1289 5645
1290 2700
1290 2701
1290 2702
1290 2827
1290 2830
1290 2833
1290 4162
1290 4171
1290 4180
1290 5593
1290 5620
1290 5647
1291 2736
1291 2737
1291 2738
1291 2781
1291 2784
1291 2787
1291 4188
1291 4197
1291 4206
1291 5593
1291 5620
1291 5647
1292 2691
1292 2692
1292 2693
1292 2765
1292 2768
1292 2771
1292 4136
1292 4145
1292 4154
1292 5593
1292 5620
1292 5647
1293 2739
1293 2740
1293 2741
1293 2774
1293 2777
1293 2780
1293 4162
1293 4171
1293 4180
1293 5595
1293 5622
1293 5649
1294 2694
1294 2695
1294 2696
1294 2809
1294 2812
1294 2815
1294 4188
1294 4197
1294 4206
1294 5595
1294 5622
1294 5649
1295 2703
1295 2704
1295 2705
1295 2790
1295 2793
1295 2796
1295 4136
1295 4145
1295 4154
1295 5595
1295 5622
1295 5649
1296 2754
1296 2755
1296 2756
1296 2835
1296 2838
1296 2841
1296 4212
1296 4221
1296 4230
1296 5670
1296 5697
1296 5724
1297 2790
1297 2791
1297 2792
1297 2900
1297 2903
1297 2906
1297 4241
1297 4250
1297 4259
1297 5670
1297 5697
1297 5724
1298 2826
1298 2827
1298 2828
1298 2881
1298 2884
1298 2887
1298 4267
1298 4276
1298 4285
1298 5670
1298 5697
1298 5724
1299 2793
1299 2794
1299 2795
1299 2863
1299 2866
1299 2869
1299 4212
1299 4221
1299 4230
1299 5675
1299 5702
1299 5729
1300 2829
1300 2830
1300 2831
1300 2844
1300 2847
1300 2850
1300 4241
1300 4250
1300 4259
1300 5675
1300 5702
1300 5729
1301 2757
1301 2758
1301 2759
1301 2909
1301 2912
1301 2915
1301 4267
1301 4276
1301 4285
1301 5675
1301 5702
1301 5729
1302 2832
1302 2833
1302 2834
1302 2891
1302 2894
1302 2897
1302 4212
1302 4221
1302 4230
1302 5677
1302 5704
1302 5731
1303 2760
1303 2761
1303 2762
1303 2872
1303 2875
1303 2878
1303 4241
1303 4250
1303 4259
1303 5677
1303 5704
1303 5731
1304 2796
1304 2797
1304 2798
1304 2853
1304 2856
1304 2859
1304 4267
1304 4276
1304 4285
1304 5677
1304 5704
1304 5731
1305 2766
1305 2767
1305 2768
1305 2835
1305 2838
1305 2841
1305 4216
1305 4225
1305 4234
1305 5686
1305 5713
1305 5740
1306 2802
1306 2803
1306 2804
1306 2900
1306 2903
1306 2906
1306 4242
1306 4251
1306 4260
1306 5686
1306 5713
1306 5740
1307 2811
1307 2812
1307 2813
1307 2881
1307 2884
1307 2887
1307 4271
1307 4280
1307 4289
1307 5686
1307 5713
1307 5740
1308 2805
1308 2806
1308 2807
1308 2863
1308 2866
1308 2869
1308 4216
1308 4225
1308 4234
1308 5679
1308 5706
1308 5733
1309 2814
1309 2815
1309 2816
1309 2844
1309 2847
1309 2850
1309 4242
1309 4251
1309 4260
1309 5679
1309 5706
1309 5733
1310 2769
1310 2770
1310 2771
1310 2909
1310 2912
1310 2915
1310 4271
1310 4280
1310 4289
1310 5679
1310 5706
1310 5733
1311 2808
1311 2809
1311 2810
1311 2891
1311 2894
1311 2897
1311 4216
1311 4225
1311 4234
1311 5684
1311 5711
1311 5738
1312 2763
1312 2764
1312 2765
1312 2872
1312 2875
1312 2878
1312 4242
1312 4251
1312 4260
1312 5684
1312 5711
1312 5738
1313 2799
1313 2800
1313 2801
1313 2853
1313 2856
1313 2859
1313 4271
1313 4280
1313 4289
1313 5684
1313 5711
1313 5738
1314 2778
1314 2779
1314 2780
1314 2835
1314 2838
1314 2841
1314 4220
1314 4229
1314 4238
1314 5693
1314 5720
1314 5747
1315 2787
1315 2788
1315 2789
1315 2900
1315 2903
1315 2906
1315 4246
1315 4255
1315 4264
1315 5693
1315 5720
1315 5747
1316 2823
1316 2824
1316 2825
1316 2881
1316 2884
1316 2887
1316 4272
1316 4281
1316 4290
1316 5693
1316 5720
1316 5747
1317 2781
1317 2782
1317 2783
1317 2863
1317 2866
1317 2869
1317 4220
1317 4229
1317 4238
1317 5695
1317 5722
1317 5749
1318 2817
1318 2818
1318 2819
1318 2844
1318 2847
1318 2850
1318 4246
1318 4255
1318 4264
1318 5695
1318 5722
1318 5749
1319 2772
1319 2773
1319 2774
1319 2909
1319 2912
1319 2915
1319 4272
1319 4281
1319 4290
1319 5695
1319 5722
1319 5749
1320 2820
1320 2821
1320 2822
1320 2891
1320 2894
1320 2897
1320 4220
1320 4229
1320 4238
1320 5688
1320 5715
1320 5742
1321 2775
1321 2776
1321 2777
1321 2872
1321 2875
1321 2878
1321 4246
1321 4255
1321 4264
1321 5688
1321 5715
1321 5742
1322 2784
1322 2785
1322 2786
1322 2853
1322 2856
1322 2859
1322 4272
1322 4281
1322 4290
1322 5688
1322 5715
1322 5742
1323 2754
1323 2755
1323 2756
1323 2898
1323 2901
1323 2904
1323 4270
1323 4279
1323 4288
1323 5691
1323 5718
1323 5745
1324 2790
1324 2791
1324 2792
1324 2882
1324 2885
1324 2888
1324 4215
1324 4224
1324 4233
1324 5691
1324 5718
1324 5745
1325 2826
1325 2827
1325 2828
1325 2836
1325 2839
1325 2842
1325 4244
1325 4253
1325 4262
1325 5691
1325 5718
1325 5745
1326 2793
1326 2794
1326 2795
1326 2845
1326 2848
1326 2851
1326 4270
1326 4279
1326 4288
1326 5696
1326 5723
1326 5750
1327 2829
1327 2830
1327 2831
1327 2907
1327 2910
1327 2913
1327 4215
1327 4224
1327 4233
1327 5696
1327 5723
1327 5750
1328 2757
1328 2758
1328 2759
1328 2864
1328 2867
1328 2870
1328 4244
1328 4253
1328 4262
1328 5696
1328 5723
1328 5750
1329 2832
1329 2833
1329 2834
1329 2873
1329 2876
1329 2879
1329 4270
1329 4279
1329 4288
1329 5689
1329 5716
1329 5743
1330 2760
1330 2761
1330 2762
1330 2854
1330 2857
1330 2860
1330 4215
1330 4224
1330 4233
1330 5689
1330 5716
1330 5743
1331 2796
1331 2797
1331 2798
1331 2889
1331 2892
1331 2895
1331 4244
1331 4253
1331 4262
1331 5689
1331 5716
1331 5743
1332 2766
1332 2767
1332 2768
1332 2898
1332 2901
1332 2904
1332 4274
1332 4283
1332 4292
1332 5671
1332 5698
1332 5725
1333 2802
1333 2803
1333 2804
1333 2882
1333 2885
1333 2888
1333 4219
1333 4228
1333 4237
1333 5671
1333 5698
1333 5725
1334 2811
1334 2812
1334 2813
1334 2836
1334 2839
1334 2842
1334 4245
1334 4254
1334 4263
1334 5671
1334 5698
1334 5725
1335 2805
1335 2806
1335 2807
1335 2845
1335 2848
1335 2851
1335 4274
1335 4283
1335 4292
1335 5673
1335 5700
1335 5727
1336 2814
1336 2815
1336 2816
1336 2907
1336 2910
1336 2913
1336 4219
1336 4228
1336 4237
1336 5673
1336 5700
1336 5727
1337 2769
1337 2770
1337 2771
1337 2864
1337 2867
1337 2870
1337 4245
1337 4254
1337 4263
1337 5673
1337 5700
1337 5727
1338 2808
1338 2809
1338 2810
1338 2873
1338 2876
1338 2879
1338 4274
1338 4283
1338 4292
1338 5678
1338 5705
1338 5732
1339 2763
1339 2764
1339 2765
1339 2854
1339 2857
1339 2860
1339 4219
1339 4228
1339 4237
1339 5678
1339 5705
1339 5732
1340 2799
1340 2800
1340 2801
1340 2889
1340 2892
1340 2895
1340 4245
1340 4254
1340 4263
1340 5678
1340 5705
1340 5732
1341 2778
1341 2779
1341 2780
1341 2898
1341 2901
1341 2904
1341 4266
1341 4275
1341 4284
1341 5687
1341 5714
1341 5741
1342 2787
1342 2788
1342 2789
1342 2882
1342 2885
1342 2888
1342 4214
1342 4223
1342 4232
1342 5687
1342 5714
1342 5741
1343 2823
1343 2824
1343 2825
1343 2836
1343 2839
1343 2842
1343 4240
1343 4249
1343 4258
1343 5687
1343 5714
1343 5741
1344 2781
1344 2782
1344 2783
1344 2845
1344 2848
1344 2851
1344 4266
1344 4275
1344 4284
1344 5680
1344 5707
1344 5734
1345 2817
1345 2818
1345 2819
1345 2907
1345 2910
1345 2913
1345 4214
1345 4223
1345 4232
1345 5680
1345 5707
1345 5734
1346 2772
1346 2773
1346 2774
1346 2864
1346 2867
1346 2870
1346 4240
1346 4249
1346 4258
1346 5680
1346 5707
1346 5734
1347 2820
1347 2821
1347 2822
1347 2873
1347 2876
1347 2879
1347 4266
1347 4275
1347 4284
1347 5682
1347 5709
1347 5736
1348 2775
1348 2776
1348 2777
1348 2854
1348 2857
1348 2860
1348 4214
1348 4223
1348 4232
1348 5682
1348 5709
1348 5736
1349 2784
1349 2785
1349 2786
1349 2889
1349 2892
1349 2895
1349 4240
1349 4249
1349 4258
1349 5682
1349 5709
1349 5736
1350 2754
1350 2755
1350 2756
1350 2880
1350 2883
1350 2886
1350 4247
1350 4256
1350 4265
1350 5685
1350 5712
1350 5739
1351 2790
1351 2791
1351 2792
1351 2837
1351 2840
1351 2843
1351 4273
1351 4282
1351 4291
1351 5685
1351 5712
1351 5739
1352 2826
1352 2827
1352 2828
1352 2899
1352 2902
1352 2905
1352 4218
1352 4227
1352 4236
1352 5685
1352 5712
1352 5739
1353 2793
1353 2794
1353 2795
1353 2908
1353 2911
1353 2914
1353 4247
1353 4256
1353 4265
1353 5681
1353 5708
1353 5735
1354 2829
1354 2830
1354 2831
1354 2862
1354 2865
1354 2868
1354 4273
1354 4282
1354 4291
1354 5681
1354 5708
1354 5735
1355 2757
1355 2758
1355 2759
1355 2846
1355 2849
1355 2852
1355 4218
1355 4227
1355 4236
1355 5681
1355 5708
1355 5735
1356 2832
1356 2833
1356 2834
1356 2855
1356 2858
1356 2861
1356 4247
1356 4256
1356 4265
1356 5683
1356 5710
1356 5737
1357 2760
1357 2761
1357 2762
1357 2890
1357 2893
1357 2896
1357 4273
1357 4282
1357 4291
1357 5683
1357 5710
1357 5737
1358 2796
1358 2797
1358 2798
1358 2871
1358 2874
1358 2877
1358 4218
1358 4227
1358 4236
1358 5683
1358 5710
1358 5737
1359 2766
1359 2767
1359 2768
1359 2880
1359 2883
1359 2886
1359 4239
1359 4248
1359 4257
1359 5692
1359 5719
1359 5746
1360 2802
1360 2803
1360 2804
1360 2837
1360 2840
1360 2843
1360 4268
1360 4277
1360 4286
1360 5692
1360 5719
1360 5746
1361 2811
1361 2812
1361 2813
1361 2899
1361 2902
1361 2905
1361 4213
1361 4222
1361 4231
1361 5692
1361 5719
1361 5746
1362 2805
1362 2806
1362 2807
1362 2908
1362 2911
1362 2914
1362 4239
1362 4248
1362 4257
1362 5694
1362 5721
1362 5748
1363 2814
1363 2815
1363 2816
1363 2862
1363 2865
1363 2868
1363 4268
1363 4277
1363 4286
1363 5694
1363 5721
1363 5748
1364 2769
1364 2770
1364 2771
1364 2846
1364 2849
1364 2852
1364 4213
1364 4222
1364 4231
1364 5694
1364 5721
1364 5748
1365 2808
1365 2809
1365 2810
1365 2855
1365 2858
1365 2861
1365 4239
1365 4248
1365 4257
1365 5690
1365 5717
1365 5744
1366 2763
1366 2764
1366 2765
1366 2890
1366 2893
1366 2896
1366 4268
1366 4277
1366 4286
1366 5690
1366 5717
1366 5744
1367 2799
1367 2800
1367 2801
1367 2871
1367 2874
1367 2877
1367 4213
1367 4222
1367 4231
1367 5690
1367 5717
1367 5744
1368 2778
1368 2779
1368 2780
1368 2880
1368 2883
1368 2886
1368 4243
1368 4252
1368 4261
1368 5672
1368 5699
1368 5726
1369 2787
1369 2788
1369 2789
1369 2837
1369 2840
1369 2843
1369 4269
1369 4278
1369 4287
1369 5672
1369 5699
1369 5726
1370 2823
1370 2824
1370 2825
1370 2899
1370 2902
1370 2905
1370 4217
1370 4226
1370 4235
1370 5672
1370 5699
1370 5726
1371 2781
1371 2782
1371 2783
1371 2908
1371 2911
1371 2914
1371 4243
1371 4252
1371 4261
1371 5674
1371 5701
1371 5728
1372 2817
1372 2818
1372 2819
1372 2862
1372 2865
1372 2868
1372 4269
1372 4278
1372 4287
1372 5674
1372 5701
1372 5728
1373 2772
1373 2773
1373 2774
1373 2846
1373 2849
1373 2852
1373 4217
1373 4226
1373 4235
1373 5674
1373 5701
1373 5728
1374 2820
1374 2821
1374 2822
1374 2855
1374 2858
1374 2861
1374 4243
1374 4252
1374 4261
1374 5676
1374 5703
1374 5730
1375 2775
1375 2776
1375 2777
1375 2890
1375 2893
1375 2896
1375 4269
1375 4278
1375 4287
1375 5676
1375 5703
1375 5730
1376 2784
1376 2785
1376 2786
1376 2871
1376 2874
1376 2877
1376 4217
1376 4226
1376 4235
1376 5676
1376 5703
1376 5730
1377 2187
1377 2190
1377 2193
1377 2835
1377 2836
1377 2837
1377 4293
1377 4302
1377 4311
1377 5751
1377 5778
1377 5805
1378 2252
1378 2255
1378 2258
1378 2871
1378 2872
1378 2873
1378 4322
1378 4331
1378 4340
1378 5751
1378 5778
1378 5805
1379 2233
1379 2236
1379 2239
1379 2907
1379 2908
1379 2909
1379 4348
1379 4357
1379 4366
1379 5751
1379 5778
1379 5805
1380 2215
1380 2218
1380 2221
1380 2874
1380 2875
1380 2876
1380 4293
1380 4302
1380 4311
1380 5756
1380 5783
1380 5810
1381 2196
1381 2199
1381 2202
1381 2910
1381 2911
1381 2912
1381 4322
1381 4331
1381 4340
1381 5756
1381 5783
1381 5810
1382 2261
1382 2264
1382 2267
1382 2838
1382 2839
1382 2840
1382 4348
1382 4357
1382 4366
1382 5756
1382 5783
1382 5810
1383 2243
1383 2246
1383 2249
1383 2913
1383 2914
1383 2915
1383 4293
1383 4302
1383 4311
1383 5758
1383 5785
1383 5812
1384 2224
1384 2227
1384 2230
1384 2841
1384 2842
1384 2843
1384 4322
1384 4331
1384 4340
1384 5758
1384 5785
1384 5812
1385 2205
1385 2208
1385 2211
1385 2877
1385 2878
1385 2879
1385 4348
1385 4357
1385 4366
1385 5758
1385 5785
1385 5812
1386 2187
1386 2190
1386 2193
1386 2847
1386 2848
1386 2849
1386 4297
1386 4306
1386 4315
1386 5767
1386 5794
1386 5821
1387 2252
1387 2255
1387 2258
1387 2883
1387 2884
1387 2885
1387 4323
1387 4332
1387 4341
1387 5767
1387 5794
1387 5821
1388 2233
1388 2236
1388 2239
1388 2892
1388 2893
1388 2894
1388 4352
1388 4361
1388 4370
1388 5767
1388 5794
1388 5821
1389 2215
1389 2218
1389 2221
1389 2886
1389 2887
1389 2888
1389 4297
1389 4306
1389 4315
1389 5760
1389 5787
1389 5814
1390 2196
1390 2199
1390 2202
1390 2895
1390 2896
1390 2897
1390 4323
1390 4332
1390 4341
1390 5760
1390 5787
1390 5814
1391 2261
1391 2264
1391 2267
1391 2850
1391 2851
1391 2852
1391 4352
1391 4361
1391 4370
1391 5760
1391 5787
1391 5814
1392 2243
1392 2246
1392 2249
1392 2889
1392 2890
1392 2891
1392 4297
1392 4306
1392 4315
1392 5765
1392 5792
1392 5819
1393 2224
1393 2227
1393 2230
1393 2844
1393 2845
1393 2846
1393 4323
1393 4332
1393 4341
1393 5765
1393 5792
1393 5819
1394 2205
1394 2208
1394 2211
1394 2880
1394 2881
1394 2882
1394 4352
1394 4361
1394 4370
1394 5765
1394 5792
1394 5819
1395 2187
1395 2190
1395 2193
1395 2859
1395 2860
1395 2861
1395 4301
1395 4310
1395 4319
1395 5774
1395 5801
1395 5828
1396 2252
1396 2255
1396 2258
1396 2868
1396 2869
1396 2870
1396 4327
1396 4336
1396 4345
1396 5774
1396 5801
1396 5828
1397 2233
1397 2236
1397 2239
1397 2904
1397 2905
1397 2906
1397 4353
1397 4362
1397 4371
1397 5774
1397 5801
1397 5828
1398 2215
1398 2218
1398 2221
1398 2862
1398 2863
1398 2864
1398 4301
1398 4310
1398 4319
1398 5776
1398 5803
1398 5830
1399 2196
1399 2199
1399 2202
1399 2898
1399 2899
1399 2900
1399 4327
1399 4336
1399 4345
1399 5776
1399 5803
1399 5830
1400 2261
1400 2264
1400 2267
1400 2853
1400 2854
1400 2855
1400 4353
1400 4362
1400 4371
1400 5776
1400 5803
1400 5830
1401 2243
1401 2246
1401 2249
1401 2901
1401 2902
1401 2903
1401 4301
1401 4310
1401 4319
1401 5769
1401 5796
1401 5823
1402 2224
1402 2227
1402 2230
1402 2856
1402 2857
1402 2858
1402 4327
1402 4336
1402 4345
1402 5769
1402 5796
1402 5823
1403 2205
1403 2208
1403 2211
1403 2865
1403 2866
1403 2867
1403 4353
1403 4362
1403 4371
1403 5769
1403 5796
1403 5823
1404 2250
1404 2253
1404 2256
1404 2835
1404 2836
1404 2837
1404 4351
1404 4360
1404 4369
1404 5772
1404 5799
1404 5826
1405 2234
1405 2237
1405 2240
1405 2871
1405 2872
1405 2873
1405 4296
1405 4305
1405 4314
1405 5772
1405 5799
1405 5826
1406 2188
1406 2191
1406 2194
1406 2907
1406 2908
1406 2909
1406 4325
1406 4334
1406 4343
1406 5772
1406 5799
1406 5826
1407 2197
1407 2200
1407 2203
1407 2874
1407 2875
1407 2876
1407 4351
1407 4360
1407 4369
1407 5777
1407 5804
1407 5831
1408 2259
1408 2262
1408 2265
1408 2910
1408 2911
1408 2912
1408 4296
1408 4305
1408 4314
1408 5777
1408 5804
1408 5831
1409 2216
1409 2219
1409 2222
1409 2838
1409 2839
1409 2840
1409 4325
1409 4334
1409 4343
1409 5777
1409 5804
1409 5831
1410 2225
1410 2228
1410 2231
1410 2913
1410 2914
1410 2915
1410 4351
1410 4360
1410 4369
1410 5770
1410 5797
1410 5824
1411 2206
1411 2209
1411 2212
1411 2841
1411 2842
1411 2843
1411 4296
1411 4305
1411 4314
1411 5770
1411 5797
1411 5824
1412 2241
1412 2244
1412 2247
1412 2877
1412 2878
1412 2879
1412 4325
1412 4334
1412 4343
1412 5770
1412 5797
1412 5824
1413 2250
1413 2253
1413 2256
1413 2847
1413 2848
1413 2849
1413 4355
1413 4364
1413 4373
1413 5752
1413 5779
1413 5806
1414 2234
1414 2237
1414 2240
1414 2883
1414 2884
1414 2885
1414 4300
1414 4309
1414 4318
1414 5752
1414 5779
1414 5806
1415 2188
1415 2191
1415 2194
1415 2892
1415 2893
1415 2894
1415 4326
1415 4335
1415 4344
1415 5752
1415 5779
1415 5806
1416 2197
1416 2200
1416 2203
1416 2886
1416 2887
1416 2888
1416 4355
1416 4364
1416 4373
1416 5754
1416 5781
1416 5808
1417 2259
1417 2262
1417 2265
1417 2895
1417 2896
1417 2897
1417 4300
1417 4309
1417 4318
1417 5754
1417 5781
1417 5808
1418 2216
1418 2219
1418 2222
1418 2850
1418 2851
1418 2852
1418 4326
1418 4335
1418 4344
1418 5754
1418 5781
1418 5808
1419 2225
1419 2228
1419 2231
1419 2889
1419 2890
1419 2891
1419 4355
1419 4364
1419 4373
1419 5759
1419 5786
1419 5813
1420 2206
1420 2209
1420 2212
1420 2844
1420 2845
1420 2846
1420 4300
1420 4309
1420 4318
1420 5759
1420 5786
1420 5813
1421 2241
1421 2244
1421 2247
1421 2880
1421 2881
1421 2882
1421 4326
1421 4335
1421 4344
1421 5759
1421 5786
1421 5813
1422 2250
1422 2253
1422 2256
1422 2859
1422 2860
1422 2861
1422 4347
1422 4356
1422 4365
1422 5768
1422 5795
1422 5822
1423 2234
1423 2237
1423 2240
1423 2868
1423 2869
1423 2870
1423 4295
1423 4304
1423 4313
1423 5768
1423 5795
1423 5822
1424 2188
1424 2191
1424 2194
1424 2904
1424 2905
1424 2906
1424 4321
1424 4330
1424 4339
1424 5768
1424 5795
1424 5822
1425 2197
1425 2200
1425 2203
1425 2862
1425 2863
1425 2864
1425 4347
1425 4356
1425 4365
1425 5761
1425 5788
1425 5815
1426 2259
1426 2262
1426 2265
1426 2898
1426 2899
1426 2900
1426 4295
1426 4304
1426 4313
1426 5761
1426 5788
1426 5815
1427 2216
1427 2219
1427 2222
1427 2853
1427 2854
1427 2855
1427 4321
1427 4330
1427 4339
1427 5761
1427 5788
1427 5815
1428 2225
1428 2228
1428 2231
1428 2901
1428 2902
1428 2903
1428 4347
1428 4356
1428 4365
1428 5763
1428 5790
1428 5817
1429 2206
1429 2209
1429 2212
1429 2856
1429 2857
1429 2858
1429 4295
1429 4304
1429 4313
1429 5763
1429 5790
1429 5817
1430 2241
1430 2244
1430 2247
1430 2865
1430 2866
1430 2867
1430 4321
1430 4330
1430 4339
1430 5763
1430 5790
1430 5817
1431 2232
1431 2235
1431 2238
1431 2835
1431 2836
1431 2837
1431 4328
1431 4337
1431 4346
1431 5766
1431 5793
1431 5820
1432 2189
1432 2192
1432 2195
1432 2871
1432 2872
1432 2873
1432 4354
1432 4363
1432 4372
1432 5766
1432 5793
1432 5820
1433 2251
1433 2254
1433 2257
1433 2907
1433 2908
1433 2909
1433 4299
1433 4308
1433 4317
1433 5766
1433 5793
1433 5820
1434 2260
1434 2263
1434 2266
1434 2874
1434 2875
1434 2876
1434 4328
1434 4337
1434 4346
1434 5762
1434 5789
1434 5816
1435 2214
1435 2217
1435 2220
1435 2910
1435 2911
1435 2912
1435 4354
1435 4363
1435 4372
1435 5762
1435 5789
1435 5816
1436 2198
1436 2201
1436 2204
1436 2838
1436 2839
1436 2840
1436 4299
1436 4308
1436 4317
1436 5762
1436 5789
1436 5816
1437 2207
1437 2210
1437 2213
1437 2913
1437 2914
1437 2915
1437 4328
1437 4337
1437 4346
1437 5764
1437 5791
1437 5818
1438 2242
1438 2245
1438 2248
1438 2841
1438 2842
1438 2843
1438 4354
1438 4363
1438 4372
1438 5764
1438 5791
1438 5818
1439 2223
1439 2226
1439 2229
1439 2877
1439 2878
1439 2879
1439 4299
1439 4308
1439 4317
1439 5764
1439 5791
1439 5818
1440 2232
1440 2235
1440 2238
1440 2847
1440 2848
1440 2849
1440 4320
1440 4329
1440 4338
1440 5773
1440 5800
1440 5827
1441 2189
1441 2192
1441 2195
1441 2883
1441 2884
1441 2885
1441 4349
1441 4358
1441 4367
1441 5773
1441 5800
1441 5827
1442 2251
1442 2254
1442 2257
1442 2892
1442 2893
1442 2894
1442 4294
1442 4303
1442 4312
1442 5773
1442 5800
1442 5827
1443 2260
1443 2263
1443 2266
1443 2886
1443 2887
1443 2888
1443 4320
1443 4329
1443 4338
1443 5775
1443 5802
1443 5829
1444 2214
1444 2217
1444 2220
1444 2895
1444 2896
1444 2897
1444 4349
1444 4358
1444 4367
1444 5775
1444 5802
1444 5829
1445 2198
1445 2201
1445 2204
1445 2850
1445 2851
1445 2852
1445 4294
1445 4303
1445 4312
1445 5775
1445 5802
1445 5829
1446 2207
1446 2210
1446 2213
1446 2889
1446 2890
1446 2891
1446 4320
1446 4329
1446 4338
1446 5771
1446 5798
1446 5825
1447 2242
1447 2245
1447 2248
1447 2844
1447 2845
1447 2846
1447 4349
1447 4358
1447 4367
1447 5771
1447 5798
1447 5825
1448 2223
1448 2226
1448 2229
1448 2880
1448 2881
1448 2882
1448 4294
1448 4303
1448 4312
1448 5771
1448 5798
1448 5825
1449 2232
1449 2235
1449 2238
1449 2859
1449 2860
1449 2861
1449 4324
1449 4333
1449 4342
1449 5753
1449 5780
1449 5807
1450 2189
1450 2192
1450 2195
1450 2868
1450 2869
1450 2870
1450 4350
1450 4359
1450 4368
1450 5753
1450 5780
1450 5807
1451 2251
1451 2254
1451 2257
1451 2904
1451 2905
1451 2906
1451 4298
1451 4307
1451 4316
1451 5753
1451 5780
1451 5807
1452 2260
1452 2263
1452 2266
1452 2862
1452 2863
1452 2864
1452 4324
1452 4333
1452 4342
1452 5755
1452 5782
1452 5809
1453 2214
1453 2217
1453 2220
1453 2898
1453 2899
1453 2900
1453 4350
1453 4359
1453 4368
1453 5755
1453 5782
1453 5809
1454 2198
1454 2201
1454 2204
1454 2853
1454 2854
1454 2855
1454 4298
1454 4307
1454 4316
1454 5755
1454 5782
1454 5809
1455 2207
1455 2210
1455 2213
1455 2901
1455 2902
1455 2903
1455 4324
1455 4333
1455 4342
1455 5757
1455 5784
1455 5811
1456 2242
1456 2245
1456 2248
1456 2856
1456 2857
1456 2858
1456 4350
1456 4359
1456 4368
1456 5757
1456 5784
1456 5811
1457 2223
1457 2226
1457 2229
1457 2865
1457 2866
1457 2867
1457 4298
1457 4307
1457 4316
1457 5757
1457 5784
1457 5811
1458 2997
1458 2998
1458 2999
1458 5427
1458 5430
1458 5433
1459 3033
1459 3034
1459 3035
1459 5492
1459 5495
1459 5498
1460 3069
1460 3070
1460 3071
1460 5473
1460 5476
1460 5479
1461 3036
1461 3037
1461 3038
1461 5455
1461 5458
1461 5461
1462 3072
1462 3073
1462 3074
1462 5436
1462 5439
1462 5442
1463 3000
1463 3001
1463 3002
1463 5501
1463 5504
1463 5507
1464 3075
1464 3076
1464 3077
1464 5483
1464 5486
1464 5489
1465 3003
1465 3004
1465 3005
1465 5464
1465 5467
1465 5470
1466 3039
1466 3040
1466 3041
1466 5445
1466 5448
1466 5451
1467 3009
1467 3010
1467 3011
1467 5427
1467 5430
1467 5433
1468 3045
1468 3046
1468 3047
1468 5492
1468 5495
1468 5498
1469 3054
1469 3055
1469 3056
1469 5473
1469 5476
1469 5479
1470 3048
1470 3049
1470 3050
1470 5455
1470 5458
1470 5461
1471 3057
1471 3058
1471 3059
1471 5436
1471 5439
1471 5442
1472 3012
1472 3013
1472 3014
1472 5501
1472 5504
1472 5507
1473 3051
1473 3052
1473 3053
1473 5483
1473 5486
1473 5489
1474 3006
1474 3007
1474 3008
1474 5464
1474 5467
1474 5470
1475 3042
1475 3043
1475 3044
1475 5445
1475 5448
1475 5451
1476 3021
1476 3022
1476 3023
1476 5427
1476 5430
1476 5433
1477 3030
1477 3031
1477 3032
1477 5492
1477 5495
1477 5498
1478 3066
1478 3067
1478 3068
1478 5473
1478 5476
1478 5479
1479 3024
1479 3025
1479 3026
1479 5455
1479 5458
1479 5461
1480 3060
1480 3061
1480 3062
1480 5436
1480 5439
1480 5442
1481 3015
1481 3016
1481 3017
1481 5501
1481 5504
1481 5507
1482 3063
1482 3064
1482 3065
1482 5483
1482 5486
1482 5489
1483 3018
1483 3019
1483 3020
1483 5464
1483 5467
1483 5470
1484 3027
1484 3028
1484 3029
1484 5445
1484 5448
1484 5451
1485 2997
1485 2998
1485 2999
1485 5490
1485 5493
1485 5496
1486 3033
1486 3034
1486 3035
1486 5474
1486 5477
1486 5480
1487 3069
1487 3070
1487 3071
1487 5428
1487 5431
1487 5434
1488 3036
1488 3037
1488 3038
1488 5437
1488 5440
1488 5443
1489 3072
1489 3073
1489 3074
1489 5499
1489 5502
1489 5505
1490 3000
1490 3001
1490 3002
1490 5456
1490 5459
1490 5462
1491 3075
1491 3076
1491 3077
1491 5465
1491 5468
1491 5471
1492 3003
1492 3004
1492 3005
1492 5446
1492 5449
1492 5452
1493 3039
1493 3040
1493 3041
1493 5481
1493 5484
1493 5487
1494 3009
1494 3010
1494 3011
1494 5490
1494 5493
1494 5496
1495 3045
1495 3046
1495 3047
1495 5474
1495 5477
1495 5480
1496 3054
1496 3055
1496 3056
1496 5428
1496 5431
1496 5434
1497 3048
1497 3049
1497 3050
1497 5437
1497 5440
1497 5443
1498 3057
1498 3058
1498 3059
1498 5499
1498 5502
1498 5505
1499 3012
1499 3013
1499 3014
1499 5456
1499 5459
1499 5462
1500 3051
1500 3052
1500 3053
1500 5465
1500 5468
1500 5471
1501 3006
1501 3007
1501 3008
1501 5446
1501 5449
1501 5452
1502 3042
1502 3043
1502 3044
1502 5481
1502 5484
1502 5487
1503 3021
1503 3022
1503 3023
1503 5490
1503 5493
1503 5496
1504 3030
1504 3031
1504 3032
1504 5474
1504 5477
1504 5480
1505 3066
1505 3067
1505 3068
1505 5428
1505 5431
1505 5434
1506 3024
1506 3025
1506 3026
1506 5437
1506 5440
1506 5443
1507 3060
1507 3061
1507 3062
1507 5499
1507 5502
1507 5505
1508 3015
1508 3016
1508 3017
1508 5456
1508 5459
1508 5462
1509 3063
1509 3064
1509 3065
1509 5465
1509 5468
1509 5471
1510 3018
1510 3019
1510 3020
1510 5446
1510 5449
1510 5452
1511 3027
1511 3028
1511 3029
1511 5481
1511 5484
1511 5487
1512 2997
1512 2998
1512 2999
1512 5472
1512 5475
1512 5478
1513 3033
1513 3034
1513 3035
1513 5429
1513 5432
1513 5435
1514 3069
1514 3070
1514 3071
1514 5491
1514 5494
1514 5497
1515 3036
1515 3037
1515 3038
1515 5500
1515 5503
1515 5506
1516 3072
1516 3073
1516 3074
1516 5454
1516 5457
1516 5460
1517 3000
1517 3001
1517 3002
1517 5438
1517 5441
1517 5444
1518 3075
1518 3076
1518 3077
1518 5447
1518 5450
1518 5453
1519 3003
1519 3004
1519 3005
1519 5482
1519 5485
1519 5488
1520 3039
1520 3040
1520 3041
1520 5463
1520 5466
1520 5469
1521 3009
1521 3010
1521 3011
1521 5472
1521 5475
1521 5478
1522 3045
1522 3046
1522 3047
1522 5429
1522 5432
1522 5435
1523 3054
1523 3055
1523 3056
1523 5491
1523 5494
1523 5497
1524 3048
1524 3049
1524 3050
1524 5500
1524 5503
1524 5506
1525 3057
1525 3058
1525 3059
1525 5454
1525 5457
1525 5460
1526 3012
1526 3013
1526 3014
1526 5438
1526 5441
1526 5444
1527 3051
1527 3052
1527 3053
1527 5447
1527 5450
1527 5453
1528 3006
1528 3007
1528 3008
1528 5482
1528 5485
1528 5488
1529 3042
1529 3043
1529 3044
1529 5463
1529 5466
1529 5469
1530 3021
1530 3022
1530 3023
1530 5472
1530 5475
1530 5478
1531 3030
1531 3031
1531 3032
1531 5429
1531 5432
1531 5435
1532 3066
1532 3067
1532 3068
1532 5491
1532 5494
1532 5497
1533 3024
1533 3025
1533 3026
1533 5500
1533 5503
1533 5506
1534 3060
1534 3061
1534 3062
1534 5454
1534 5457
1534 5460
1535 3015
1535 3016
1535 3017
1535 5438
1535 5441
1535 5444
1536 3063
1536 3064
1536 3065
1536 5447
1536 5450
1536 5453
1537 3018
1537 3019
1537 3020
1537 5482
1537 5485
1537 5488
1538 3027
1538 3028
1538 3029
1538 5463
1538 5466
1538 5469
1539 3078
1539 3079
1539 3080
1539 5508
1539 5511
1539 5514
1540 3114
1540 3115
1540 3116
1540 5573
1540 5576
1540 5579
1541 3150
1541 3151
1541 3152
1541 5554
1541 5557
1541 5560
1542 3117
1542 3118
1542 3119
1542 5536
1542 5539
1542 5542
1543 3153
1543 3154
1543 3155
1543 5517
1543 5520
1543 5523
1544 3081
1544 3082
1544 3083
1544 5582
1544 5585
1544 5588
1545 3156
1545 3157
1545 3158
1545 5564
1545 5567
1545 5570
1546 3084
1546 3085
1546 3086
1546 5545
1546 5548
1546 5551
1547 3120
1547 3121
1547 3122
1547 5526
1547 5529
1547 5532
1548 3090
1548 3091
1548 3092
1548 5508
1548 5511
1548 5514
1549 3126
1549 3127
1549 3128
1549 5573
1549 5576
1549 5579
1550 3135
1550 3136
1550 3137
1550 5554
1550 5557
1550 5560
1551 3129
1551 3130
1551 3131
1551 5536
1551 5539
1551 5542
1552 3138
1552 3139
1552 3140
1552 5517
1552 5520
1552 5523
1553 3093
1553 3094
1553 3095
1553 5582
1553 5585
1553 5588
1554 3132
1554 3133
1554 3134
1554 5564
1554 5567
1554 5570
1555 3087
1555 3088
1555 3089
1555 5545
1555 5548
1555 5551
1556 3123
1556 3124
1556 3125
1556 5526
1556 5529
1556 5532
1557 3102
1557 3103
1557 3104
1557 5508
1557 5511
1557 5514
1558 3111
1558 3112
1558 3113
1558 5573
1558 5576
1558 5579
1559 3147
1559 3148
1559 3149
1559 5554
1559 5557
1559 5560
1560 3105
1560 3106
1560 3107
1560 5536
1560 5539
1560 5542
1561 3141
1561 3142
1561 3143
1561 5517
1561 5520
1561 5523
1562 3096
1562 3097
1562 3098
1562 5582
1562 5585
1562 5588
1563 3144
1563 3145
1563 3146
1563 5564
1563 5567
1563 5570
1564 3099
1564 3100
1564 3101
1564 5545
1564 5548
1564 5551
1565 3108
1565 3109
1565 3110
1565 5526
1565 5529
1565 5532
1566 3078
1566 3079
1566 3080
1566 5571
1566 5574
1566 5577
1567 3114
1567 3115
1567 3116
1567 5555
1567 5558
1567 5561
1568 3150
1568 3151
1568 3152
1568 5509
1568 5512
1568 5515
1569 3117
1569 3118
1569 3119
1569 5518
1569 5521
1569 5524
1570 3153
1570 3154
1570 3155
1570 5580
1570 5583
1570 5586
1571 3081
1571 3082
1571 3083
1571 5537
1571 5540
1571 5543
1572 3156
1572 3157
1572 3158
1572 5546
1572 5549
1572 5552
1573 3084
1573 3085
1573 3086
1573 5527
1573 5530
1573 5533
1574 3120
1574 3121
1574 3122
1574 5562
1574 5565
1574 5568
1575 3090
1575 3091
1575 3092
1575 5571
1575 5574
1575 5577
1576 3126
1576 3127
1576 3128
1576 5555
1576 5558
1576 5561
1577 3135
1577 3136
1577 3137
1577 5509
1577 5512
1577 5515
1578 3129
1578 3130
1578 3131
1578 5518
1578 5521
1578 5524
1579 3138
1579 3139
1579 3140
1579 5580
1579 5583
1579 5586
1580 3093
1580 3094
1580 3095
1580 5537
1580 5540
1580 5543
1581 3132
1581 3133
1581 3134
1581 5546
1581 5549
1581 5552
1582 3087
1582 3088
1582 3089
1582 5527
1582 5530
1582 5533
1583 3123
1583 3124
1583 3125
1583 5562
1583 5565
1583 5568
1584 3102
1584 3103
1584 3104
1584 5571
1584 5574
1584 5577
1585 3111
1585 3112
1585 3113
1585 5555
1585 5558
1585 5561
1586 3147
1586 3148
1586 3149
1586 5509
1586 5512
1586 5515
1587 3105
1587 3106
1587 3107
1587 5518
1587 5521
1587 5524
1588 3141
1588 3142
1588 3143
1588 5580
1588 5583
1588 5586
1589 3096
1589 3097
1589 3098
1589 5537
1589 5540
1589 5543
1590 3144
1590 3145
1590 3146
1590 5546
1590 5549
1590 5552
1591 3099
1591 3100
1591 3101
1591 5527
1591 5530
1591 5533
1592 3108
1592 3109
1592 3110
1592 5562
1592 5565
1592 5568
1593 3078
1593 3079
1593 3080
1593 5553
1593 5556
1593 5559
1594 3114
1594 3115
1594 3116
1594 5510
1594 5513
1594 5516
1595 3150
1595 3151
1595 3152
1595 5572
1595 5575
1595 5578
1596 3117
1596 3118
1596 3119
1596 5581
1596 5584
1596 5587
1597 3153
1597 3154
1597 3155
1597 5535
1597 5538
1597 5541
1598 3081
1598 3082
1598 3083
1598 5519
1598 5522
1598 5525
1599 3156
1599 3157
1599 3158
1599 5528
1599 5531
1599 5534
1600 3084
1600 3085
1600 3086
1600 5563
1600 5566
1600 5569
1601 3120
1601 3121
1601 3122
1601 5544
1601 5547
1601 5550
1602 3090
1602 3091
1602 3092
1602 5553
1602 5556
1602 5559
1603 3126
1603 3127
1603 3128
1603 5510
1603 5513
1603 5516
1604 3135
1604 3136
1604 3137
1604 5572
1604 5575
1604 5578
1605 3129
1605 3130
1605 3131
1605 5581
1605 5584
1605 5587
1606 3138
1606 3139
1606 3140
1606 5535
1606 5538
1606 5541
1607 3093
1607 3094
1607 3095
1607 5519
1607 5522
1607 5525
1608 3132
1608 3133
1608 3134
1608 5528
1608 5531
1608 5534
1609 3087
1609 3088
1609 3089
1609 5563
1609 5566
1609 5569
1610 3123
1610 3124
1610 3125
1610 5544
1610 5547
1610 5550
1611 3102
1611 3103
1611 3104
1611 5553
1611 5556
1611 5559
1612 3111
1612 3112
1612 3113
1612 5510
1612 5513
1612 5516
1613 3147
1613 3148
1613 3149
1613 5572
1613 5575
1613 5578
1614 3105
1614 3106
1614 3107
1614 5581
1614 5584
1614 5587
1615 3141
1615 3142
1615 3143
1615 5535
1615 5538
1615 5541
1616 3096
1616 3097
1616 3098
1616 5519
1616 5522
1616 5525
1617 3144
1617 3145
1617 3146
1617 5528
1617 5531
1617 5534
1618 3099
1618 3100
1618 3101
1618 5563
1618 5566
1618 5569
1619 3108
1619 3109
1619 3110
1619 5544
1619 5547
1619 5550
1620 3159
1620 3160
1620 3161
1620 5589
1620 5592
1620 5595
1621 3195
1621 3196
1621 3197
1621 5654
1621 5657
1621 5660
1622 3231
1622 3232
1622 3233
1622 5635
1622 5638
1622 5641
1623 3198
1623 3199
1623 3200
1623 5617
1623 5620
1623 5623
1624 3234
1624 3235
1624 3236
1624 5598
1624 5601
1624 5604
1625 3162
1625 3163
1625 3164
1625 5663
1625 5666
1625 5669
1626 3237
1626 3238
1626 3239
1626 5645
1626 5648
1626 5651
1627 3165
1627 3166
1627 3167
1627 5626
1627 5629
1627 5632
1628 3201
1628 3202
1628 3203
1628 5607
1628 5610
1628 5613
1629 3171
1629 3172
1629 3173
1629 5589
1629 5592
1629 5595
1630 3207
1630 3208
1630 3209
1630 5654
1630 5657
1630 5660
1631 3216
1631 3217
1631 3218
1631 5635
1631 5638
1631 5641
1632 3210
1632 3211
1632 3212
1632 5617
1632 5620
1632 5623
1633 3219
1633 3220
1633 3221
1633 5598
1633 5601
1633 5604
1634 3174
1634 3175
1634 3176
1634 5663
1634 5666
1634 5669
1635 3213
1635 3214
1635 3215
1635 5645
1635 5648
1635 5651
1636 3168
1636 3169
1636 3170
1636 5626
1636 5629
1636 5632
1637 3204
1637 3205
1637 3206
1637 5607
1637 5610
1637 5613
1638 3183
1638 3184
1638 3185
1638 5589
1638 5592
1638 5595
1639 3192
1639 3193
1639 3194
1639 5654
1639 5657
1639 5660
1640 3228
1640 3229
1640 3230
1640 5635
1640 5638
1640 5641
1641 3186
1641 3187
1641 3188
1641 5617
1641 5620
1641 5623
1642 3222
1642 3223
1642 3224
1642 5598
1642 5601
1642 5604
1643 3177
1643 3178
1643 3179
1643 5663
1643 5666
1643 5669
1644 3225
1644 3226
1644 3227
1644 5645
1644 5648
1644 5651
1645 3180
1645 3181
1645 3182
1645 5626
1645 5629
1645 5632
1646 3189
1646 3190
1646 3191
1646 5607
1646 5610
1646 5613
1647 3159
1647 3160
1647 3161
1647 5652
1647 5655
1647 5658
1648 3195
1648 3196
1648 3197
1648 5636
1648 5639
1648 5642
1649 3231
1649 3232
1649 3233
1649 5590
1649 5593
1649 5596
1650 3198
1650 3199
1650 3200
1650 5599
1650 5602
1650 5605
1651 3234
1651 3235
1651 3236
1651 5661
1651 5664
1651 5667
1652 3162
1652 3163
1652 3164
1652 5618
1652 5621
1652 5624
1653 3237
1653 3238
1653 3239
1653 5627
1653 5630
1653 5633
1654 3165
1654 3166
1654 3167
1654 5608
1654 5611
1654 5614
1655 3201
1655 3202
1655 3203
1655 5643
1655 5646
1655 5649
1656 3171
1656 3172
1656 3173
1656 5652
1656 5655
1656 5658
1657 3207
1657 3208
1657 3209
1657 5636
1657 5639
1657 5642
1658 3216
1658 3217
1658 3218
1658 5590
1658 5593
1658 5596
1659 3210
1659 3211
1659 3212
1659 5599
1659 5602
1659 5605
1660 3219
1660 3220
1660 3221
1660 5661
1660 5664
1660 5667
1661 3174
1661 3175
1661 3176
1661 5618
1661 5621
1661 5624
1662 3213
1662 3214
1662 3215
1662 5627
1662 5630
1662 5633
1663 3168
1663 3169
1663 3170
1663 5608
1663 5611
1663 5614
1664 3204
1664 3205
1664 3206
1664 5643
1664 5646
1664 5649
1665 3183
1665 3184
1665 3185
1665 5652
1665 5655
1665 5658
1666 3192
1666 3193
1666 3194
1666 5636
1666 5639
1666 5642
1667 3228
1667 3229
1667 3230
1667 5590
1667 5593
1667 5596
1668 3186
1668 3187
1668 3188
1668 5599
1668 5602
1668 5605
1669 3222
1669 3223
1669 3224
1669 5661
1669 5664
1669 5667
1670 3177
1670 3178
1670 3179
1670 5618
1670 5621
1670 5624
1671 3225
1671 3226
1671 3227
1671 5627
1671 5630
1671 5633
1672 3180
1672 3181
1672 3182
1672 5608
1672 5611
1672 5614
1673 3189
1673 3190
1673 3191
1673 5643
1673 5646
1673 5649
1674 3159
1674 3160
1674 3161
1674 5634
1674 5637
1674 5640
1675 3195
1675 3196
1675 3197
1675 5591
1675 5594
1675 5597
1676 3231
1676 3232
1676 3233
1676 5653
1676 5656
1676 5659
1677 3198
1677 3199
1677 3200
1677 5662
1677 5665
1677 5668
1678 3234
1678 3235
1678 3236
1678 5616
1678 5619
1678 5622
1679 3162
1679 3163
1679 3164
1679 5600
1679 5603
1679 5606
1680 3237
1680 3238
1680 3239
1680 5609
1680 5612
1680 5615
1681 3165
1681 3166
1681 3167
1681 5644
1681 5647
1681 5650
1682 3201
1682 3202
1682 3203
1682 5625
1682 5628
1682 5631
1683 3171
1683 3172
1683 3173
1683 5634
1683 5637
1683 5640
1684 3207
1684 3208
1684 3209
1684 5591
1684 5594
1684 5597
1685 3216
1685 3217
1685 3218
1685 5653
1685 5656
1685 5659
1686 3210
1686 3211
1686 3212
1686 5662
1686 5665
1686 5668
1687 3219
1687 3220
1687 3221
1687 5616
1687 5619
1687 5622
1688 3174
1688 3175
1688 3176
1688 5600
1688 5603
1688 5606
1689 3213
1689 3214
1689 3215
1689 5609
1689 5612
1689 5615
1690 3168
1690 3169
1690 3170
1690 5644
1690 5647
1690 5650
1691 3204
1691 3205
1691 3206
1691 5625
1691 5628
1691 5631
1692 3183
1692 3184
1692 3185
1692 5634
1692 5637
1692 5640
1693 3192
1693 3193
1693 3194
1693 5591
1693 5594
1693 5597
1694 3228
1694 3229
1694 3230
1694 5653
1694 5656
1694 5659
1695 3186
1695 3187
1695 3188
1695 5662
1695 5665
1695 5668
1696 3222
1696 3223
1696 3224
1696 5616
1696 5619
1696 5622
1697 3177
1697 3178
1697 3179
1697 5600
1697 5603
1697 5606
1698 3225
1698 3226
1698 3227
1698 5609
1698 5612
1698 5615
1699 3180
1699 3181
1699 3182
1699 5644
1699 5647
1699 5650
1700 3189
1700 3190
1700 3191
1700 5625
1700 5628
1700 5631
1701 3240
1701 3241
1701 3242
1701 5670
1701 5673
1701 5676
1702 3276
1702 3277
1702 3278
1702 5735
1702 5738
1702 5741
1703 3312
1703 3313
1703 3314
1703 5716
1703 5719
1703 5722
1704 3279
1704 3280
1704 3281
1704 5698
1704 5701
1704 5704
1705 3315
1705 3316
1705 3317
1705 5679
1705 5682
1705 5685
1706 3243
1706 3244
1706 3245
1706 5744
1706 5747
1706 5750
1707 3318
1707 3319
1707 3320
1707 5726
1707 5729
1707 5732
1708 3246
1708 3247
1708 3248
1708 5707
1708 5710
1708 5713
1709 3282
1709 3283
1709 3284
1709 5688
1709 5691
1709 5694
1710 3252
1710 3253
1710 3254
1710 5670
1710 5673
1710 5676
1711 3288
1711 3289
1711 3290
1711 5735
1711 5738
1711 5741
1712 3297
1712 3298
1712 3299
1712 5716
1712 5719
1712 5722
1713 3291
1713 3292
1713 3293
1713 5698
1713 5701
1713 5704
1714 3300
1714 3301
1714 3302
1714 5679
1714 5682
1714 5685
1715 3255
1715 3256
1715 3257
1715 5744
1715 5747
1715 5750
1716 3294
1716 3295
1716 3296
1716 5726
1716 5729
1716 5732
1717 3249
1717 3250
1717 3251
1717 5707
1717 5710
1717 5713
1718 3285
1718 3286
1718 3287
1718 5688
1718 5691
1718 5694
1719 3264
1719 3265
1719 3266
1719 5670
1719 5673
1719 5676
1720 3273
1720 3274
1720 3275
1720 5735
1720 5738
1720 5741
1721 3309
1721 3310
1721 3311
1721 5716
1721 5719
1721 5722
1722 3267
1722 3268
1722 3269
1722 5698
1722 5701
1722 5704
1723 3303
1723 3304
1723 3305
1723 5679
1723 5682
1723 5685
1724 3258
1724 3259
1724 3260
1724 5744
1724 5747
1724 5750
1725 3306
1725 3307
1725 3308
1725 5726
1725 5729
1725 5732
1726 3261
1726 3262
1726 3263
1726 5707
1726 5710
1726 5713
1727 3270
1727 3271
1727 3272
1727 5688
1727 5691
1727 5694
1728 3240
1728 3241
1728 3242
1728 5733
1728 5736
1728 5739
1729 3276
1729 3277
1729 3278
1729 5717
1729 5720
1729 5723
1730 3312
1730 3313
1730 3314
1730 5671
1730 5674
1730 5677
1731 3279
1731 3280
1731 3281
1731 5680
1731 5683
1731 5686
1732 3315
1732 3316
1732 3317
1732 5742
1732 5745
1732 5748
1733 3243
1733 3244
1733 3245
1733 5699
1733 5702
1733 5705
1734 3318
1734 3319
1734 3320
1734 5708
1734 5711
1734 5714
1735 3246
1735 3247
1735 3248
1735 5689
1735 5692
1735 5695
1736 3282
1736 3283
1736 3284
1736 5724
1736 5727
1736 5730
1737 3252
1737 3253
1737 3254
1737 5733
1737 5736
1737 5739
1738 3288
1738 3289
1738 3290
1738 5717
1738 5720
1738 5723
1739 3297
1739 3298
1739 3299
1739 5671
1739 5674
1739 5677
1740 3291
1740 3292
1740 3293
1740 5680
1740 5683
1740 5686
1741 3300
1741 3301
1741 3302
1741 5742
1741 5745
1741 5748
1742 3255
1742 3256
1742 3257
1742 5699
1742 5702
1742 5705
1743 3294
1743 3295
1743 3296
1743 5708
1743 5711
1743 5714
1744 3249
1744 3250
1744 3251
1744 5689
1744 5692
1744 5695
1745 3285
1745 3286
1745 3287
1745 5724
1745 5727
1745 5730
1746 3264
1746 3265
1746 3266
1746 5733
1746 5736
1746 5739
1747 3273
1747 3274
1747 3275
1747 5717
1747 5720
1747 5723
1748 3309
1748 3310
1748 3311
1748 5671
1748 5674
1748 5677
1749 3267
1749 3268
1749 3269
1749 5680
1749 5683
1749 5686
1750 3303
1750 3304
1750 3305
1750 5742
1750 5745
1750 5748
1751 3258
1751 3259
1751 3260
1751 5699
1751 5702
1751 5705
1752 3306
1752 3307
1752 3308
1752 5708
1752 5711
1752 5714
1753 3261
1753 3262
1753 3263
1753 5689
1753 5692
1753 5695
1754 3270
1754 3271
1754 3272
1754 5724
1754 5727
1754 5730
1755 3240
1755 3241
1755 3242
1755 5715
1755 5718
1755 5721
1756 3276
1756 3277
1756 3278
1756 5672
1756 5675
1756 5678
1757 3312
1757 3313
1757 3314
1757 5734
1757 5737
1757 5740
1758 3279
1758 3280
1758 3281
1758 5743
1758 5746
1758 5749
1759 3315
1759 3316
1759 3317
1759 5697
1759 5700
1759 5703
1760 3243
1760 3244
1760 3245
1760 5681
1760 5684
1760 5687
1761 3318
1761 3319
1761 3320
1761 5690
1761 5693
1761 5696
1762 3246
1762 3247
1762 3248
1762 5725
1762 5728
1762 5731
1763 3282
1763 3283
1763 3284
1763 5706
1763 5709
1763 5712
1764 3252
1764 3253
1764 3254
1764 5715
1764 5718
1764 5721
1765 3288
1765 3289
1765 3290
1765 5672
1765 5675
1765 5678
1766 3297
1766 3298
1766 3299
1766 5734
1766 5737
1766 5740
1767 3291
1767 3292
1767 3293
1767 5743
1767 5746
1767 5749
1768 3300
1768 3301
1768 3302
1768 5697
1768 5700
1768 5703
1769 3255
1769 3256
1769 3257
1769 5681
1769 5684
1769 5687
1770 3294
1770 3295
1770 3296
1770 5690
1770 5693
1770 5696
1771 3249
1771 3250
1771 3251
1771 5725
1771 5728
1771 5731
1772 3285
1772 3286
1772 3287
1772 5706
1772 5709
1772 5712
1773 3264
1773 3265
1773 3266
1773 5715
1773 5718
1773 5721
1774 3273
1774 3274
1774 3275
1774 5672
1774 5675
1774 5678
1775 3309
1775 3310
1775 3311
1775 5734
1775 5737
1775 5740
1776 3267
1776 3268
1776 3269
1776 5743
1776 5746
1776 5749
1777 3303
1777 3304
1777 3305
1777 5697
1777 5700
1777 5703
1778 3258
1778 3259
1778 3260
1778 5681
1778 5684
1778 5687
1779 3306
1779 3307
1779 3308
1779 5690
1779 5693
1779 5696
1780 3261
1780 3262
1780 3263
1780 5725
1780 5728
1780 5731
1781 3270
1781 3271
1781 3272
1781 5706
1781 5709
1781 5712
1782 3321
1782 3322
1782 3323
1782 5751
1782 5754
1782 5757
1783 3357
1783 3358
1783 3359
1783 5816
1783 5819
1783 5822
1784 3393
1784 3394
1784 3395
1784 5797
1784 5800
1784 5803
1785 3360
1785 3361
1785 3362
1785 5779
1785 5782
1785 5785
1786 3396
1786 3397
1786 3398
1786 5760
1786 5763
1786 5766
1787 3324
1787 3325
1787 3326
1787 5825
1787 5828
1787 5831
1788 3399
1788 3400
1788 3401
1788 5807
1788 5810
1788 5813
1789 3327
1789 3328
1789 3329
1789 5788
1789 5791
1789 5794
1790 3363
1790 3364
1790 3365
1790 5769
1790 5772
1790 5775
1791 3333
1791 3334
1791 3335
1791 5751
1791 5754
1791 5757
1792 3369
1792 3370
1792 3371
1792 5816
1792 5819
1792 5822
1793 3378
1793 3379
1793 3380
1793 5797
1793 5800
1793 5803
1794 3372
1794 3373
1794 3374
1794 5779
1794 5782
1794 5785
1795 3381
1795 3382
1795 3383
1795 5760
1795 5763
1795 5766
1796 3336
1796 3337
1796 3338
1796 5825
1796 5828
1796 5831
1797 3375
1797 3376
1797 3377
1797 5807
1797 5810
1797 5813
1798 3330
1798 3331
1798 3332
1798 5788
1798 5791
1798 5794
1799 3366
1799 3367
1799 3368
1799 5769
1799 5772
1799 5775
1800 3345
1800 3346
1800 3347
1800 5751
1800 5754
1800 5757
1801 3354
1801 3355
1801 3356
1801 5816
1801 5819
1801 5822
1802 3390
1802 3391
1802 3392
1802 5797
1802 5800
1802 5803
1803 3348
1803 3349
1803 3350
1803 5779
1803 5782
1803 5785
1804 3384
1804 3385
1804 3386
1804 5760
1804 5763
1804 5766
1805 3339
1805 3340
1805 3341
1805 5825
1805 5828
1805 5831
1806 3387
1806 3388
1806 3389
1806 5807
1806 5810
1806 5813
1807 3342
1807 3343
1807 3344
1807 5788
1807 5791
1807 5794
1808 3351
1808 3352
1808 3353
1808 5769
1808 5772
1808 5775
1809 3321
1809 3322
1809 3323
1809 5814
1809 5817
1809 5820
1810 3357
1810 3358
1810 3359
1810 5798
1810 5801
1810 5804
1811 3393
1811 3394
1811 3395
1811 5752
1811 5755
1811 5758
1812 3360
1812 3361
1812 3362
1812 5761
1812 5764
1812 5767
1813 3396
1813 3397
1813 3398
1813 5823
1813 5826
1813 5829
1814 3324
1814 3325
1814 3326
1814 5780
1814 5783
1814 5786
1815 3399
1815 3400
1815 3401
1815 5789
1815 5792
1815 5795
1816 3327
1816 3328
1816 3329
1816 5770
1816 5773
1816 5776
1817 3363
1817 3364
1817 3365
1817 5805
1817 5808
1817 5811
1818 3333
1818 3334
1818 3335
1818 5814
1818 5817
1818 5820
1819 3369
1819 3370
1819 3371
1819 5798
1819 5801
1819 5804
1820 3378
1820 3379
1820 3380
1820 5752
1820 5755
1820 5758
1821 3372
1821 3373
1821 3374
1821 5761
1821 5764
1821 5767
1822 3381
1822 3382
1822 3383
1822 5823
1822 5826
1822 5829
1823 3336
1823 3337
1823 3338
1823 5780
1823 5783
1823 5786
1824 3375
1824 3376
1824 3377
1824 5789
1824 5792
1824 5795
1825 3330
1825 3331
1825 3332
1825 5770
1825 5773
1825 5776
1826 3366
1826 3367
1826 3368
1826 5805
1826 5808
1826 5811
1827 3345
1827 3346
1827 3347
1827 5814
1827 5817
1827 5820
1828 3354
1828 3355
1828 3356
1828 5798
1828 5801
1828 5804
1829 3390
1829 3391
1829 3392
1829 5752
1829 5755
1829 5758
1830 3348
1830 3349
1830 3350
1830 5761
1830 5764
1830 5767
1831 3384
1831 3385
1831 3386
1831 5823
1831 5826
1831 5829
1832 3339
1832 3340
1832 3341
1832 5780
1832 5783
1832 5786
1833 3387
1833 3388
1833 3389
1833 5789
1833 5792
1833 5795
1834 3342
1834 3343
1834 3344
1834 5770
1834 5773
1834 5776
1835 3351
1835 3352
1835 3353
1835 5805
1835 5808
1835 5811
1836 3321
1836 3322
1836 3323
1836 5796
1836 5799
1836 5802
1837 3357
1837 3358
1837 3359
1837 5753
1837 5756
1837 5759
1838 3393
1838 3394
1838 3395
1838 5815
1838 5818
1838 5821
1839 3360
1839 3361
1839 3362
1839 5824
1839 5827
1839 5830
1840 3396
1840 3397
1840 3398
1840 5778
1840 5781
1840 5784
1841 3324
1841 3325
1841 3326
1841 5762
1841 5765
1841 5768
1842 3399
1842 3400
1842 3401
1842 5771
1842 5774
1842 5777
1843 3327
1843 3328
1843 3329
1843 5806
1843 5809
1843 5812
1844 3363
1844 3364
1844 3365
1844 5787
1844 5790
1844 5793
1845 3333
1845 3334
1845 3335
1845 5796
1845 5799
1845 5802
1846 3369
1846 3370
1846 3371
1846 5753
1846 5756
1846 5759
1847 3378
1847 3379
1847 3380
1847 5815
1847 5818
1847 5821
1848 3372
1848 3373
1848 3374
1848 5824
1848 5827
1848 5830
1849 3381
1849 3382
1849 3383
1849 5778
1849 5781
1849 5784
1850 3336
1850 3337
1850 3338
1850 5762
1850 5765
1850 5768
1851 3375
1851 3376
1851 3377
1851 5771
1851 5774
1851 5777
1852 3330
1852 3331
1852 3332
1852 5806
1852 5809
1852 5812
1853 3366
1853 3367
1853 3368
1853 5787
1853 5790
1853 5793
1854 3345
1854 3346
1854 3347
1854 5796
1854 5799
1854 5802
1855 3354
1855 3355
1855 3356
1855 5753
1855 5756
1855 5759
1856 3390
1856 3391
1856 3392
1856 5815
1856 5818
1856 5821
1857 3348
1857 3349
1857 3350
1857 5824
1857 5827
1857 5830
1858 3384
1858 3385
1858 3386
1858 5778
1858 5781
1858 5784
1859 3339
1859 3340
1859 3341
1859 5762
1859 5765
1859 5768
1860 3387
1860 3388
1860 3389
1860 5771
1860 5774
1860 5777
1861 3342
1861 3343
1861 3344
1861 5806
1861 5809
1861 5812
1862 3351
1862 3352
1862 3353
1862 5787
1862 5790
1862 5793
1863 3402
1863 3403
1863 3404
1863 5103
1863 5106
1863 5109
1864 3438
1864 3439
1864 3440
1864 5168
1864 5171
1864 5174
1865 3474
1865 3475
1865 3476
1865 5149
1865 5152
1865 5155
1866 3441
1866 3442
1866 3443
1866 5131
1866 5134
1866 5137
1867 3477
1867 3478
1867 3479
1867 5112
1867 5115
1867 5118
1868 3405
1868 3406
1868 3407
1868 5177
1868 5180
1868 5183
1869 3480
1869 3481
1869 3482
1869 5159
1869 5162
1869 5165
1870 3408
1870 3409
1870 3410
1870 5140
1870 5143
1870 5146
1871 3444
1871 3445
1871 3446
1871 5121
1871 5124
1871 5127
1872 3414
1872 3415
1872 3416
1872 5103
1872 5106
1872 5109
1873 3450
1873 3451
1873 3452
1873 5168
1873 5171
1873 5174
1874 3459
1874 3460
1874 3461
1874 5149
1874 5152
1874 5155
1875 3453
1875 3454
1875 3455
1875 5131
1875 5134
1875 5137
1876 3462
1876 3463
1876 3464
1876 5112
1876 5115
1876 5118
1877 3417
1877 3418
1877 3419
1877 5177
1877 5180
1877 5183
1878 3456
1878 3457
1878 3458
1878 5159
1878 5162
1878 5165
1879 3411
1879 3412
1879 3413
1879 5140
1879 5143
1879 5146
1880 3447
1880 3448
1880 3449
1880 5121
1880 5124
1880 5127
1881 3426
1881 3427
1881 3428
1881 5103
1881 5106
1881 5109
1882 3435
1882 3436
1882 3437
1882 5168
1882 5171
1882 5174
1883 3471
1883 3472
1883 3473
1883 5149
1883 5152
1883 5155
1884 3429
1884 3430
1884 3431
1884 5131
1884 5134
1884 5137
1885 3465
1885 3466
1885 3467
1885 5112
1885 5115
1885 5118
1886 3420
1886 3421
1886 3422
1886 5177
1886 5180
1886 5183
1887 3468
1887 3469
1887 3470
1887 5159
1887 5162
1887 5165
1888 3423
1888 3424
1888 3425
1888 5140
1888 5143
1888 5146
1889 3432
1889 3433
1889 3434
1889 5121
1889 5124
1889 5127
1890 3402
1890 3403
1890 3404
1890 5166
1890 5169
1890 5172
1891 3438
1891 3439
1891 3440
1891 5150
1891 5153
1891 5156
1892 3474
1892 3475
1892 3476
1892 5104
1892 5107
1892 5110
1893 3441
1893 3442
1893 3443
1893 5113
1893 5116
1893 5119
1894 3477
1894 3478
1894 3479
1894 5175
1894 5178
1894 5181
1895 3405
1895 3406
1895 3407
1895 5132
1895 5135
1895 5138
1896 3480
1896 3481
1896 3482
1896 5141
1896 5144
1896 5147
1897 3408
1897 3409
1897 3410
1897 5122
1897 5125
1897 5128
1898 3444
1898 3445
1898 3446
1898 5157
1898 5160
1898 5163
1899 3414
1899 3415
1899 3416
1899 5166
1899 5169
1899 5172
1900 3450
1900 3451
1900 3452
1900 5150
1900 5153
1900 5156
1901 3459
1901 3460
1901 3461
1901 5104
1901 5107
1901 5110
1902 3453
1902 3454
1902 3455
1902 5113
1902 5116
1902 5119
1903 3462
1903 3463
1903 3464
1903 5175
1903 5178
1903 5181
1904 3417
1904 3418
1904 3419
1904 5132
1904 5135
1904 5138
1905 3456
1905 3457
1905 3458
1905 5141
1905 5144
1905 5147
1906 3411
1906 3412
1906 3413
1906 5122
1906 5125
1906 5128
1907 3447
1907 3448
1907 3449
1907 5157
1907 5160
1907 5163
1908 3426
1908 3427
1908 3428
1908 5166
1908 5169
1908 5172
1909 3435
1909 3436
1909 3437
1909 5150
1909 5153
1909 5156
1910 3471
1910 3472
1910 3473
1910 5104
1910 5107
1910 5110
1911 3429
1911 3430
1911 3431
1911 5113
1911 5116
1911 5119
1912 3465
1912 3466
1912 3467
1912 5175
1912 5178
1912 5181
1913 3420
1913 3421
1913 3422
1913 5132
1913 5135
1913 5138
1914 3468
1914 3469
1914 3470
1914 5141
1914 5144
1914 5147
1915 3423
1915 3424
1915 3425
1915 5122
1915 5125
1915 5128
1916 3432
1916 3433
1916 3434
1916 5157
1916 5160
1916 5163
1917 3402
1917 3403
1917 3404
1917 5148
1917 5151
1917 5154
1918 3438
1918 3439
1918 3440
1918 5105
1918 5108
1918 5111
1919 3474
1919 3475
1919 3476
1919 5167
1919 5170
1919 5173
1920 3441
1920 3442
1920 3443
1920 5176
1920 5179
1920 5182
1921 3477
1921 3478
1921 3479
1921 5130
1921 5133
1921 5136
1922 3405
1922 3406
1922 3407
1922 5114
1922 5117
1922 5120
1923 3480
1923 3481
1923 3482
1923 5123
1923 5126
1923 5129
1924 3408
1924 3409
1924 3410
1924 5158
1924 5161
1924 5164
1925 3444
1925 3445
1925 3446
1925 5139
1925 5142
1925 5145
1926 3414
1926 3415
1926 3416
1926 5148
1926 5151
1926 5154
1927 3450
1927 3451
1927 3452
1927 5105
1927 5108
1927 5111
1928 3459
1928 3460
1928 3461
1928 5167
1928 5170
1928 5173
1929 3453
1929 3454
1929 3455
1929 5176
1929 5179
1929 5182
1930 3462
1930 3463
1930 3464
1930 5130
1930 5133
1930 5136
1931 3417
1931 3418
1931 3419
1931 5114
1931 5117
1931 5120
1932 3456
1932 3457
1932 3458
1932 5123
1932 5126
1932 5129
1933 3411
1933 3412
1933 3413
1933 5158
1933 5161
1933 5164
1934 3447
1934 3448
1934 3449
1934 5139
1934 5142
1934 5145
1935 3426
1935 3427
1935 3428
1935 5148
1935 5151
1935 5154
1936 3435
1936 3436
1936 3437
1936 5105
1936 5108
1936 5111
1937 3471
1937 3472
1937 3473
1937 5167
1937 5170
1937 5173
1938 3429
1938 3430
1938 3431
1938 5176
1938 5179
1938 5182
1939 3465
1939 3466
1939 3467
1939 5130
1939 5133
1939 5136
1940 3420
1940 3421
1940 3422
1940 5114
1940 5117
1940 5120
1941 3468
1941 3469
1941 3470
1941 5123
1941 5126
1941 5129
1942 3423
1942 3424
1942 3425
1942 5158
1942 5161
1942 5164
1943 3432
1943 3433
1943 3434
1943 5139
1943 5142
1943 5145
1944 3483
1944 3484
1944 3485
1944 5184
1944 5187
1944 5190
1945 3519
1945 3520
1945 3521
1945 5249
1945 5252
1945 5255
1946 3555
1946 3556
1946 3557
1946 5230
1946 5233
1946 5236
1947 3522
1947 3523
1947 3524
1947 5212
1947 5215
1947 5218
1948 3558
1948 3559
1948 3560
1948 5193
1948 5196
1948 5199
1949 3486
1949 3487
1949 3488
1949 5258
1949 5261
1949 5264
1950 3561
1950 3562
1950 3563
1950 5240
1950 5243
1950 5246
1951 3489
1951 3490
1951 3491
1951 5221
1951 5224
1951 5227
1952 3525
1952 3526
1952 3527
1952 5202
1952 5205
1952 5208
1953 3495
1953 3496
1953 3497
1953 5184
1953 5187
1953 5190
1954 3531
1954 3532
1954 3533
1954 5249
1954 5252
1954 5255
1955 3540
1955 3541
1955 3542
1955 5230
1955 5233
1955 5236
1956 3534
1956 3535
1956 3536
1956 5212
1956 5215
1956 5218
1957 3543
1957 3544
1957 3545
1957 5193
1957 5196
1957 5199
1958 3498
1958 3499
1958 3500
1958 5258
1958 5261
1958 5264
1959 3537
1959 3538
1959 3539
1959 5240
1959 5243
1959 5246
1960 3492
1960 3493
1960 3494
1960 5221
1960 5224
1960 5227
1961 3528
1961 3529
1961 3530
1961 5202
1961 5205
1961 5208
1962 3507
1962 3508
1962 3509
1962 5184
1962 5187
1962 5190
1963 3516
1963 3517
1963 3518
1963 5249
1963 5252
1963 5255
1964 3552
1964 3553
1964 3554
1964 5230
1964 5233
1964 5236
1965 3510
1965 3511
1965 3512
1965 5212
1965 5215
1965 5218
1966 3546
1966 3547
1966 3548
1966 5193
1966 5196
1966 5199
1967 3501
1967 3502
1967 3503
1967 5258
1967 5261
1967 5264
1968 3549
1968 3550
1968 3551
1968 5240
1968 5243
1968 5246
1969 3504
1969 3505
1969 3506
1969 5221
1969 5224
1969 5227
1970 3513
1970 3514
1970 3515
1970 5202
1970 5205
1970 5208
1971 3483
1971 3484
1971 3485
1971 5247
1971 5250
1971 5253
1972 3519
1972 3520
1972 3521
1972 5231
1972 5234
1972 5237
1973 3555
1973 3556
1973 3557
1973 5185
1973 5188
1973 5191
1974 3522
1974 3523
1974 3524
1974 5194
1974 5197
1974 5200
1975 3558
1975 3559
1975 3560
1975 5256
1975 5259
1975 5262
1976 3486
1976 3487
1976 3488
1976 5213
1976 5216
1976 5219
1977 3561
1977 3562
1977 3563
1977 5222
1977 5225
1977 5228
1978 3489
1978 3490
1978 3491
1978 5203
1978 5206
1978 5209
1979 3525
1979 3526
1979 3527
1979 5238
1979 5241
1979 5244
1980 3495
1980 3496
1980 3497
1980 5247
1980 5250
1980 5253
1981 3531
1981 3532
1981 3533
1981 5231
1981 5234
1981 5237
1982 3540
1982 3541
1982 3542
1982 5185
1982 5188
1982 5191
1983 3534
1983 3535
1983 3536
1983 5194
1983 5197
1983 5200
1984 3543
1984 3544
1984 3545
1984 5256
1984 5259
1984 5262
1985 3498
1985 3499
1985 3500
1985 5213
1985 5216
1985 5219
1986 3537
1986 3538
1986 3539
1986 5222
1986 5225
1986 5228
1987 3492
1987 3493
1987 3494
1987 5203
1987 5206
1987 5209
1988 3528
1988 3529
1988 3530
1988 5238
1988 5241
1988 5244
1989 3507
1989 3508
1989 3509
1989 5247
1989 5250
1989 5253
1990 3516
1990 3517
1990 3518
1990 5231
1990 5234
1990 5237
1991 3552
1991 3553
1991 3554
1991 5185
1991 5188
1991 5191
1992 3510
1992 3511
1992 3512
1992 5194
1992 5197
1992 5200
1993 3546
1993 3547
1993 3548
1993 5256
1993 5259
1993 5262
1994 3501
1994 3502
1994 3503
1994 5213
1994 5216
1994 5219
1995 3549
1995 3550
1995 3551
1995 5222
1995 5225
1995 5228
1996 3504
1996 3505
1996 3506
1996 5203
1996 5206
1996 5209
1997 3513
1997 3514
1997 3515
1997 5238
1997 5241
1997 5244
1998 3483
1998 3484
1998 3485
1998 5229
1998 5232
1998 5235
1999 3519
1999 3520
1999 3521
1999 5186
1999 5189
1999 5192
2000 3555
2000 3556
2000 3557
2000 5248
2000 5251
2000 5254
2001 3522
2001 3523
2001 3524
2001 5257
2001 5260
2001 5263
2002 3558
2002 3559
2002 3560
2002 5211
2002 5214
2002 5217
2003 3486
2003 3487
2003 3488
2003 5195
2003 5198
2003 5201
2004 3561
2004 3562
2004 3563
2004 5204
2004 5207
2004 5210
2005 3489
2005 3490
2005 3491
2005 5239
2005 5242
2005 5245
2006 3525
2006 3526
2006 3527
2006 5220
2006 5223
2006 5226
2007 3495
2007 3496
2007 3497
2007 5229
2007 5232
2007 5235
2008 3531
2008 3532
2008 3533
2008 5186
2008 5189
2008 5192
2009 3540
2009 3541
2009 3542
2009 5248
2009 5251
2009 5254
2010 3534
2010 3535
2010 3536
2010 5257
2010 5260
2010 5263
2011 3543
2011 3544
2011 3545
2011 5211
2011 5214
2011 5217
2012 3498
2012 3499
2012 3500
2012 5195
2012 5198
2012 5201
2013 3537
2013 3538
2013 3539
2013 5204
2013 5207
2013 5210
2014 3492
2014 3493
2014 3494
2014 5239
2014 5242
2014 5245
2015 3528
2015 3529
2015 3530
2015 5220
2015 5223
2015 5226
2016 3507
2016 3508
2016 3509
2016 5229
2016 5232
2016 5235
2017 3516
2017 3517
2017 3518
2017 5186
2017 5189
2017 5192
2018 3552
2018 3553
2018 3554
2018 5248
2018 5251
2018 5254
2019 3510
2019 3511
2019 3512
2019 5257
2019 5260
2019 5263
2020 3546
2020 3547
2020 3548
2020 5211
2020 5214
2020 5217
2021 3501
2021 3502
2021 3503
2021 5195
2021 5198
2021 5201
2022 3549
2022 3550
2022 3551
2022 5204
2022 5207
2022 5210
2023 3504
2023 3505
2023 3506
2023 5239
2023 5242
2023 5245
2024 3513
2024 3514
2024 3515
2024 5220
2024 5223
2024 5226
2025 3564
2025 3565
2025 3566
2025 5265
2025 5268
2025 5271
2026 3600
2026 3601
2026 3602
2026 5330
2026 5333
2026 5336
2027 3636
2027 3637
2027 3638
2027 5311
2027 5314
2027 5317
2028 3603
2028 3604
2028 3605
2028 5293
2028 5296
2028 5299
2029 3639
2029 3640
2029 3641
2029 5274
2029 5277
2029 5280
2030 3567
2030 3568
2030 3569
2030 5339
2030 5342
2030 5345
2031 3642
2031 3643
2031 3644
2031 5321
2031 5324
2031 5327
2032 3570
2032 3571
2032 3572
2032 5302
2032 5305
2032 5308
2033 3606
2033 3607
2033 3608
2033 5283
2033 5286
2033 5289
2034 3576
2034 3577
2034 3578
2034 5265
2034 5268
2034 5271
2035 3612
2035 3613
2035 3614
2035 5330
2035 5333
2035 5336
2036 3621
2036 3622
2036 3623
2036 5311
2036 5314
2036 5317
2037 3615
2037 3616
2037 3617
2037 5293
2037 5296
2037 5299
2038 3624
2038 3625
2038 3626
2038 5274
2038 5277
2038 5280
2039 3579
2039 3580
2039 3581
2039 5339
2039 5342
2039 5345
2040 3618
2040 3619
2040 3620
2040 5321
2040 5324
2040 5327
2041 3573
2041 3574
2041 3575
2041 5302
2041 5305
2041 5308
2042 3609
2042 3610
2042 3611
2042 5283
2042 5286
2042 5289
2043 3588
2043 3589
2043 3590
2043 5265
2043 5268
2043 5271
2044 3597
2044 3598
2044 3599
2044 5330
2044 5333
2044 5336
2045 3633
2045 3634
2045 3635
2045 5311
2045 5314
2045 5317
2046 3591
2046 3592
2046 3593
2046 5293
2046 5296
2046 5299
2047 3627
2047 3628
2047 3629
2047 5274
2047 5277
2047 5280
2048 3582
2048 3583
2048 3584
2048 5339
2048 5342
2048 5345
2049 3630
2049 3631
2049 3632
2049 5321
2049 5324
2049 5327
2050 3585
2050 3586
2050 3587
2050 5302
2050 5305
2050 5308
2051 3594
2051 3595
2051 3596
2051 5283
2051 5286
2051 5289
2052 3564
2052 3565
2052 3566
2052 5328
2052 5331
2052 5334
2053 3600
2053 3601
2053 3602
2053 5312
2053 5315
2053 5318
2054 3636
2054 3637
2054 3638
2054 5266
2054 5269
2054 5272
2055 3603
2055 3604
2055 3605
2055 5275
2055 5278
2055 5281
2056 3639
2056 3640
2056 3641
2056 5337
2056 5340
2056 5343
2057 3567
2057 3568
2057 3569
2057 5294
2057 5297
2057 5300
2058 3642
2058 3643
2058 3644
2058 5303
2058 5306
2058 5309
2059 3570
2059 3571
2059 3572
2059 5284
2059 5287
2059 5290
2060 3606
2060 3607
2060 3608
2060 5319
2060 5322
2060 5325
2061 3576
2061 3577
2061 3578
2061 5328
2061 5331
2061 5334
2062 3612
2062 3613
2062 3614
2062 5312
2062 5315
2062 5318
2063 3621
2063 3622
2063 3623
2063 5266
2063 5269
2063 5272
2064 3615
2064 3616
2064 3617
2064 5275
2064 5278
2064 5281
2065 3624
2065 3625
2065 3626
2065 5337
2065 5340
2065 5343
2066 3579
2066 3580
2066 3581
2066 5294
2066 5297
2066 5300
2067 3618
2067 3619
2067 3620
2067 5303
2067 5306
2067 5309
2068 3573
2068 3574
2068 3575
2068 5284
2068 5287
2068 5290
2069 3609
2069 3610
2069 3611
2069 5319
2069 5322
2069 5325
2070 3588
2070 3589
2070 3590
2070 5328
2070 5331
2070 5334
2071 3597
2071 3598
2071 3599
2071 5312
2071 5315
2071 5318
2072 3633
2072 3634
2072 3635
2072 5266
2072 5269
2072 5272
2073 3591
2073 3592
2073 3593
2073 5275
2073 5278
2073 5281
2074 3627
2074 3628
2074 3629
2074 5337
2074 5340
2074 5343
2075 3582
2075 3583
2075 3584
2075 5294
2075 5297
2075 5300
2076 3630
2076 3631
2076 3632
2076 5303
2076 5306
2076 5309
2077 3585
2077 3586
2077 3587
2077 5284
2077 5287
2077 5290
2078 3594
2078 3595
2078 3596
2078 5319
2078 5322
2078 5325
2079 3564
2079 3565
2079 3566
2079 5310
2079 5313
2079 5316
2080 3600
2080 3601
2080 3602
2080 5267
2080 5270
2080 5273
2081 3636
2081 3637
2081 3638
2081 5329
2081 5332
2081 5335
2082 3603
2082 3604
2082 3605
2082 5338
2082 5341
2082 5344
2083 3639
2083 3640
2083 3641
2083 5292
2083 5295
2083 5298
2084 3567
2084 3568
2084 3569
2084 5276
2084 5279
2084 5282
2085 3642
2085 3643
2085 3644
2085 5285
2085 5288
2085 5291
2086 3570
2086 3571
2086 3572
2086 5320
2086 5323
2086 5326
2087 3606
2087 3607
2087 3608
2087 5301
2087 5304
2087 5307
2088 3576
2088 3577
2088 3578
2088 5310
2088 5313
2088 5316
2089 3612
2089 3613
2089 3614
2089 5267
2089 5270
2089 5273
2090 3621
2090 3622
2090 3623
2090 5329
2090 5332
2090 5335
2091 3615
2091 3616
2091 3617
2091 5338
2091 5341
2091 5344
2092 3624
2092 3625
2092 3626
2092 5292
2092 5295
2092 5298
2093 3579
2093 3580
2093 3581
2093 5276
2093 5279
2093 5282
2094 3618
2094 3619
2094 3620
2094 5285
2094 5288
2094 5291
2095 3573
2095 3574
2095 3575
2095 5320
2095 5323
2095 5326
2096 3609
2096 3610
2096 3611
2096 5301
2096 5304
2096 5307
2097 3588
2097 3589
2097 3590
2097 5310
2097 5313
2097 5316
2098 3597
2098 3598
2098 3599
2098 5267
2098 5270
2098 5273
2099 3633
2099 3634
2099 3635
2099 5329
2099 5332
2099 5335
2100 3591
2100 3592
2100 3593
2100 5338
2100 5341
2100 5344
2101 3627
2101 3628
2101 3629
2101 5292
2101 5295
2101 5298
2102 3582
2102 3583
2102 3584
2102 5276
2102 5279
2102 5282
2103 3630
2103 3631
2103 3632
2103 5285
2103 5288
2103 5291
2104 3585
2104 3586
2104 3587
2104 5320
2104 5323
2104 5326
2105 3594
2105 3595
2105 3596
2105 5301
2105 5304
2105 5307
2106 2916
2106 2917
2106 2918
2106 5346
2106 5349
2106 5352
2107 2952
2107 2953
2107 2954
2107 5411
2107 5414
2107 5417
2108 2988
2108 2989
2108 2990
2108 5392
2108 5395
2108 5398
2109 2955
2109 2956
2109 2957
2109 5374
2109 5377
2109 5380
2110 2991
2110 2992
2110 2993
2110 5355
2110 5358
2110 5361
2111 2919
2111 2920
2111 2921
2111 5420
2111 5423
2111 5426
2112 2994
2112 2995
2112 2996
2112 5402
2112 5405
2112 5408
2113 2922
2113 2923
2113 2924
2113 5383
2113 5386
2113 5389
2114 2958
2114 2959
2114 2960
2114 5364
2114 5367
2114 5370
2115 2928
2115 2929
2115 2930
2115 5346
2115 5349
2115 5352
2116 2964
2116 2965
2116 2966
2116 5411
2116 5414
2116 5417
2117 2973
2117 2974
2117 2975
2117 5392
2117 5395
2117 5398
2118 2967
2118 2968
2118 2969
2118 5374
2118 5377
2118 5380
2119 2976
2119 2977
2119 2978
2119 5355
2119 5358
2119 5361
2120 2931
2120 2932
2120 2933
2120 5420
2120 5423
2120 5426
2121 2970
2121 2971
2121 2972
2121 5402
2121 5405
2121 5408
2122 2925
2122 2926
2122 2927
2122 5383
2122 5386
2122 5389
2123 2961
2123 2962
2123 2963
2123 5364
2123 5367
2123 5370
2124 2940
2124 2941
2124 2942
2124 5346
2124 5349
2124 5352
2125 2949
2125 2950
2125 2951
2125 5411
2125 5414
2125 5417
2126 2985
2126 2986
2126 2987
2126 5392
2126 5395
2126 5398
2127 2943
2127 2944
2127 2945
2127 5374
2127 5377
2127 5380
2128 2979
2128 2980
2128 2981
2128 5355
2128 5358
2128 5361
2129 2934
2129 2935
2129 2936
2129 5420
2129 5423
2129 5426
2130 2982
2130 2983
2130 2984
2130 5402
2130 5405
2130 5408
2131 2937
2131 2938
2131 2939
2131 5383
2131 5386
2131 5389
2132 2946
2132 2947
2132 2948
2132 5364
2132 5367
2132 5370
2133 2916
2133 2917
2133 2918
2133 5409
2133 5412
2133 5415
2134 2952
2134 2953
2134 2954
2134 5393
2134 5396
2134 5399
2135 2988
2135 2989
2135 2990
2135 5347
2135 5350
2135 5353
2136 2955
2136 2956
2136 2957
2136 5356
2136 5359
2136 5362
2137 2991
2137 2992
2137 2993
2137 5418
2137 5421
2137 5424
2138 2919
2138 2920
2138 2921
2138 5375
2138 5378
2138 5381
2139 2994
2139 2995
2139 2996
2139 5384
2139 5387
2139 5390
2140 2922
2140 2923
2140 2924
2140 5365
2140 5368
2140 5371
2141 2958
2141 2959
2141 2960
2141 5400
2141 5403
2141 5406
2142 2928
2142 2929
2142 2930
2142 5409
2142 5412
2142 5415
2143 2964
2143 2965
2143 2966
2143 5393
2143 5396
2143 5399
2144 2973
2144 2974
2144 2975
2144 5347
2144 5350
2144 5353
2145 2967
2145 2968
2145 2969
2145 5356
2145 5359
2145 5362
2146 2976
2146 2977
2146 2978
2146 5418
2146 5421
2146 5424
2147 2931
2147 2932
2147 2933
2147 5375
2147 5378
2147 5381
2148 2970
2148 2971
2148 2972
2148 5384
2148 5387
2148 5390
2149 2925
2149 2926
2149 2927
2149 5365
2149 5368
2149 5371
2150 2961
2150 2962
2150 2963
2150 5400
2150 5403
2150 5406
2151 2940
2151 2941
2151 2942
2151 5409
2151 5412
2151 5415
2152 2949
2152 2950
2152 2951
2152 5393
2152 5396
2152 5399
2153 2985
2153 2986
2153 2987
2153 5347
2153 5350
2153 5353
2154 2943
2154 2944
2154 2945
2154 5356
2154 5359
2154 5362
2155 2979
2155 2980
2155 2981
2155 5418
2155 5421
2155 5424
2156 2934
2156 2935
2156 2936
2156 5375
2156 5378
2156 5381
2157 2982
2157 2983
2157 2984
2157 5384
2157 5387
2157 5390
2158 2937
2158 2938
2158 2939
2158 5365
2158 5368
2158 5371
2159 2946
2159 2947
2159 2948
2159 5400
2159 5403
2159 5406
2160 2916
2160 2917
2160 2918
2160 5391
2160 5394
2160 5397
2161 2952
2161 2953
2161 2954
2161 5348
2161 5351
2161 5354
2162 2988
2162 2989
2162 2990
2162 5410
2162 5413
2162 5416
2163 2955
2163 2956
2163 2957
2163 5419
2163 5422
2163 5425
2164 2991
2164 2992
2164 2993
2164 5373
2164 5376
2164 5379
2165 2919
2165 2920
2165 2921
2165 5357
2165 5360
2165 5363
2166 2994
2166 2995
2166 2996
2166 5366
2166 5369
2166 5372
2167 2922
2167 2923
2167 2924
2167 5401
2167 5404
2167 5407
2168 2958
2168 2959
2168 2960
2168 5382
2168 5385
2168 5388
2169 2928
2169 2929
2169 2930
2169 5391
2169 5394
2169 5397
2170 2964
2170 2965
2170 2966
2170 5348
2170 5351
2170 5354
2171 2973
2171 2974
2171 2975
2171 5410
2171 5413
2171 5416
2172 2967
2172 2968
2172 2969
2172 5419
2172 5422
2172 5425
2173 2976
2173 2977
2173 2978
2173 5373
2173 5376
2173 5379
2174 2931
2174 2932
2174 2933
2174 5357
2174 5360
2174 5363
2175 2970
2175 2971
2175 2972
2175 5366
2175 5369
2175 5372
2176 2925
2176 2926
2176 2927
2176 5401
2176 5404
2176 5407
2177 2961
2177 2962
2177 2963
2177 5382
2177 5385
2177 5388
2178 2940
2178 2941
2178 2942
2178 5391
2178 5394
2178 5397
2179 2949
2179 2950
2179 2951
2179 5348
2179 5351
2179 5354
2180 2985
2180 2986
2180 2987
2180 5410
2180 5413
2180 5416
2181 2943
2181 2944
2181 2945
2181 5419
2181 5422
2181 5425
2182 2979
2182 2980
2182 2981
2182 5373
2182 5376
2182 5379
2183 2934
2183 2935
2183 2936
2183 5357
2183 5360
2183 5363
2184 2982
2184 2983
2184 2984
2184 5366
2184 5369
2184 5372
2185 2937
2185 2938
2185 2939
2185 5401
2185 5404
2185 5407
2186 2946
2186 2947
2186 2948
2186 5382
2186 5385
2186 5388
2187 3726
2187 3727
2187 3728
2187 4941
2187 4944
2187 4947
2188 3762
2188 3763
2188 3764
2188 5006
2188 5009
2188 5012
2189 3798
2189 3799
2189 3800
2189 4987
2189 4990
2189 4993
2190 3765
2190 3766
2190 3767
2190 4969
2190 4972
2190 4975
2191 3801
2191 3802
2191 3803
2191 4950
2191 4953
2191 4956
2192 3729
2192 3730
2192 3731
2192 5015
2192 5018
2192 5021
2193 3804
2193 3805
2193 3806
2193 4997
2193 5000
2193 5003
2194 3732
2194 3733
2194 3734
2194 4978
2194 4981
2194 4984
2195 3768
2195 3769
2195 3770
2195 4959
2195 4962
2195 4965
2196 3738
2196 3739
2196 3740
2196 4941
2196 4944
2196 4947
2197 3774
2197 3775
2197 3776
2197 5006
2197 5009
2197 5012
2198 3783
2198 3784
2198 3785
2198 4987
2198 4990
2198 4993
2199 3777
2199 3778
2199 3779
2199 4969
2199 4972
2199 4975
2200 3786
2200 3787
2200 3788
2200 4950
2200 4953
2200 4956
2201 3741
2201 3742
2201 3743
2201 5015
2201 5018
2201 5021
2202 3780
2202 3781
2202 3782
2202 4997
2202 5000
2202 5003
2203 3735
2203 3736
2203 3737
2203 4978
2203 4981
2203 4984
2204 3771
2204 3772
2204 3773
2204 4959
2204 4962
2204 4965
2205 3750
2205 3751
2205 3752
2205 4941
2205 4944
2205 4947
2206 3759
2206 3760
2206 3761
2206 5006
2206 5009
2206 5012
2207 3795
2207 3796
2207 3797
2207 4987
2207 4990
2207 4993
2208 3753
2208 3754
2208 3755
2208 4969
2208 4972
2208 4975
2209 3789
2209 3790
2209 3791
2209 4950
2209 4953
2209 4956
2210 3744
2210 3745
2210 3746
2210 5015
2210 5018
2210 5021
2211 3792
2211 3793
2211 3794
2211 4997
2211 5000
2211 5003
2212 3747
2212 3748
2212 3749
2212 4978
2212 4981
2212 4984
2213 3756
2213 3757
2213 3758
2213 4959
2213 4962
2213 4965
2214 3726
2214 3727
2214 3728
2214 5004
2214 5007
2214 5010
2215 3762
2215 3763
2215 3764
2215 4988
2215 4991
2215 4994
2216 3798
2216 3799
2216 3800
2216 4942
2216 4945
2216 4948
2217 3765
2217 3766
2217 3767
2217 4951
2217 4954
2217 4957
2218 3801
2218 3802
2218 3803
2218 5013
2218 5016
2218 5019
2219 3729
2219 3730
2219 3731
2219 4970
2219 4973
2219 4976
2220 3804
2220 3805
2220 3806
2220 4979
2220 4982
2220 4985
2221 3732
2221 3733
2221 3734
2221 4960
2221 4963
2221 4966
2222 3768
2222 3769
2222 3770
2222 4995
2222 4998
2222 5001
2223 3738
2223 3739
2223 3740
2223 5004
2223 5007
2223 5010
2224 3774
2224 3775
2224 3776
2224 4988
2224 4991
2224 4994
2225 3783
2225 3784
2225 3785
2225 4942
2225 4945
2225 4948
2226 3777
2226 3778
2226 3779
2226 4951
2226 4954
2226 4957
2227 3786
2227 3787
2227 3788
2227 5013
2227 5016
2227 5019
2228 3741
2228 3742
2228 3743
2228 4970
2228 4973
2228 4976
2229 3780
2229 3781
2229 3782
2229 4979
2229 4982
2229 4985
2230 3735
2230 3736
2230 3737
2230 4960
2230 4963
2230 4966
2231 3771
2231 3772
2231 3773
2231 4995
2231 4998
2231 5001
2232 3750
2232 3751
2232 3752
2232 5004
2232 5007
2232 5010
2233 3759
2233 3760
2233 3761
2233 4988
2233 4991
2233 4994
2234 3795
2234 3796
2234 3797
2234 4942
2234 4945
2234 4948
2235 3753
2235 3754
2235 3755
2235 4951
2235 4954
2235 4957
2236 3789
2236 3790
2236 3791
2236 5013
2236 5016
2236 5019
2237 3744
2237 3745
2237 3746
2237 4970
2237 4973
2237 4976
2238 3792
2238 3793
2238 3794
2238 4979
2238 4982
2238 4985
2239 3747
2239 3748
2239 3749
2239 4960
2239 4963
2239 4966
2240 3756
2240 3757
2240 3758
2240 4995
2240 4998
2240 5001
2241 3726
2241 3727
2241 3728
2241 4986
2241 4989
2241 4992
2242 3762
2242 3763
2242 3764
2242 4943
2242 4946
2242 4949
2243 3798
2243 3799
2243 3800
2243 5005
2243 5008
2243 5011
2244 3765
2244 3766
2244 3767
2244 5014
2244 5017
2244 5020
2245 3801
2245 3802
2245 3803
2245 4968
2245 4971
2245 4974
2246 3729
2246 3730
2246 3731
2246 4952
2246 4955
2246 4958
2247 3804
2247 3805
2247 3806
2247 4961
2247 4964
2247 4967
2248 3732
2248 3733
2248 3734
2248 4996
2248 4999
2248 5002
2249 3768
2249 3769
2249 3770
2249 4977
2249 4980
2249 4983
2250 3738
2250 3739
2250 3740
2250 4986
2250 4989
2250 4992
2251 3774
2251 3775
2251 3776
2251 4943
2251 4946
2251 4949
2252 3783
2252 3784
2252 3785
2252 5005
2252 5008
2252 5011
2253 3777
2253 3778
2253 3779
2253 5014
2253 5017
2253 5020
2254 3786
2254 3787
2254 3788
2254 4968
2254 4971
2254 4974
2255 3741
2255 3742
2255 3743
2255 4952
2255 4955
2255 4958
2256 3780
2256 3781
2256 3782
2256 4961
2256 4964
2256 4967
2257 3735
2257 3736
2257 3737
2257 4996
2257 4999
2257 5002
2258 3771
2258 3772
2258 3773
2258 4977
2258 4980
2258 4983
2259 3750
2259 3751
2259 3752
2259 4986
2259 4989
2259 4992
2260 3759
2260 3760
2260 3761
2260 4943
2260 4946
2260 4949
2261 3795
2261 3796
2261 3797
2261 5005
2261 5008
2261 5011
2262 3753
2262 3754
2262 3755
2262 5014
2262 5017
2262 5020
2263 3789
2263 3790
2263 3791
2263 4968
2263 4971
2263 4974
2264 3744
2264 3745
2264 3746
2264 4952
2264 4955
2264 4958
2265 3792
2265 3793
2265 3794
2265 4961
2265 4964
2265 4967
2266 3747
2266 3748
2266 3749
2266 4996
2266 4999
2266 5002
2267 3756
2267 3757
2267 3758
2267 4977
2267 4980
2267 4983
2268 3807
2268 3808
2268 3809
2268 5022
2268 5025
2268 5028
2269 3843
2269 3844
2269 3845
2269 5087
2269 5090
2269 5093
2270 3879
2270 3880
2270 3881
2270 5068
2270 5071
2270 5074
2271 3846
2271 3847
2271 3848
2271 5050
2271 5053
2271 5056
2272 3882
2272 3883
2272 3884
2272 5031
2272 5034
2272 5037
2273 3810
2273 3811
2273 3812
2273 5096
2273 5099
2273 5102
2274 3885
2274 3886
2274 3887
2274 5078
2274 5081
2274 5084
2275 3813
2275 3814
2275 3815
2275 5059
2275 5062
2275 5065
2276 3849
2276 3850
2276 3851
2276 5040
2276 5043
2276 5046
2277 3819
2277 3820
2277 3821
2277 5022
2277 5025
2277 5028
2278 3855
2278 3856
2278 3857
2278 5087
2278 5090
2278 5093
2279 3864
2279 3865
2279 3866
2279 5068
2279 5071
2279 5074
2280 3858
2280 3859
2280 3860
2280 5050
2280 5053
2280 5056
2281 3867
2281 3868
2281 3869
2281 5031
2281 5034
2281 5037
2282 3822
2282 3823
2282 3824
2282 5096
2282 5099
2282 5102
2283 3861
2283 3862
2283 3863
2283 5078
2283 5081
2283 5084
2284 3816
2284 3817
2284 3818
2284 5059
2284 5062
2284 5065
2285 3852
2285 3853
2285 3854
2285 5040
2285 5043
2285 5046
2286 3831
2286 3832
2286 3833
2286 5022
2286 5025
2286 5028
2287 3840
2287 3841
2287 3842
2287 5087
2287 5090
2287 5093
2288 3876
2288 3877
2288 3878
2288 5068
2288 5071
2288 5074
2289 3834
2289 3835
2289 3836
2289 5050
2289 5053
2289 5056
2290 3870
2290 3871
2290 3872
2290 5031
2290 5034
2290 5037
2291 3825
2291 3826
2291 3827
2291 5096
2291 5099
2291 5102
2292 3873
2292 3874
2292 3875
2292 5078
2292 5081
2292 5084
2293 3828
2293 3829
2293 3830
2293 5059
2293 5062
2293 5065
2294 3837
2294 3838
2294 3839
2294 5040
2294 5043
2294 5046
2295 3807
2295 3808
2295 3809
2295 5085
2295 5088
2295 5091
2296 3843
2296 3844
2296 3845
2296 5069
2296 5072
2296 5075
2297 3879
2297 3880
2297 3881
2297 5023
2297 5026
2297 5029
2298 3846
2298 3847
2298 3848
2298 5032
2298 5035
2298 5038
2299 3882
2299 3883
2299 3884
2299 5094
2299 5097
2299 5100
2300 3810
2300 3811
2300 3812
2300 5051
2300 5054
2300 5057
2301 3885
2301 3886
2301 3887
2301 5060
2301 5063
2301 5066
2302 3813
2302 3814
2302 3815
2302 5041
2302 5044
2302 5047
2303 3849
2303 3850
2303 3851
2303 5076
2303 5079
2303 5082
2304 3819
2304 3820
2304 3821
2304 5085
2304 5088
2304 5091
2305 3855
2305 3856
2305 3857
2305 5069
2305 5072
2305 5075
2306 3864
2306 3865
2306 3866
2306 5023
2306 5026
2306 5029
2307 3858
2307 3859
2307 3860
2307 5032
2307 5035
2307 5038
2308 3867
2308 3868
2308 3869
2308 5094
2308 5097
2308 5100
2309 3822
2309 3823
2309 3824
2309 5051
2309 5054
2309 5057
2310 3861
2310 3862
2310 3863
2310 5060
2310 5063
2310 5066
2311 3816
2311 3817
2311 3818
2311 5041
2311 5044
2311 5047
2312 3852
2312 3853
2312 3854
2312 5076
2312 5079
2312 5082
2313 3831
2313 3832
2313 3833
2313 5085
2313 5088
2313 5091
2314 3840
2314 3841
2314 3842
2314 5069
2314 5072
2314 5075
2315 3876
2315 3877
2315 3878
2315 5023
2315 5026
2315 5029
2316 3834
2316 3835
2316 3836
2316 5032
2316 5035
2316 5038
2317 3870
2317 3871
2317 3872
2317 5094
2317 5097
2317 5100
2318 3825
2318 3826
2318 3827
2318 5051
2318 5054
2318 5057
2319 3873
2319 3874
2319 3875
2319 5060
2319 5063
2319 5066
2320 3828
2320 3829
2320 3830
2320 5041
2320 5044
2320 5047
2321 3837
2321 3838
2321 3839
2321 5076
2321 5079
2321 5082
2322 3807
2322 3808
2322 3809
2322 5067
2322 5070
2322 5073
2323 3843
2323 3844
2323 3845
2323 5024
2323 5027
2323 5030
2324 3879
2324 3880
2324 3881
2324 5086
2324 5089
2324 5092
2325 3846
2325 3847
2325 3848
2325 5095
2325 5098
2325 5101
2326 3882
2326 3883
2326 3884
2326 5049
2326 5052
2326 5055
2327 3810
2327 3811
2327 3812
2327 5033
2327 5036
2327 5039
2328 3885
2328 3886
2328 3887
2328 5042
2328 5045
2328 5048
2329 3813
2329 3814
2329 3815
2329 5077
2329 5080
2329 5083
2330 3849
2330 3850
2330 3851
2330 5058
2330 5061
2330 5064
2331 3819
2331 3820
2331 3821
2331 5067
2331 5070
2331 5073
2332 3855
2332 3856
2332 3857
2332 5024
2332 5027
2332 5030
2333 3864
2333 3865
2333 3866
2333 5086
2333 5089
2333 5092
2334 3858
2334 3859
2334 3860
2334 5095
2334 5098
2334 5101
2335 3867
2335 3868
2335 3869
2335 5049
2335 5052
2335 5055
2336 3822
2336 3823
2336 3824
2336 5033
2336 5036
2336 5039
2337 3861
2337 3862
2337 3863
2337 5042
2337 5045
2337 5048
2338 3816
2338 3817
2338 3818
2338 5077
2338 5080
2338 5083
2339 3852
2339 3853
2339 3854
2339 5058
2339 5061
2339 5064
2340 3831
2340 3832
2340 3833
2340 5067
2340 5070
2340 5073
2341 3840
2341 3841
2341 3842
2341 5024
2341 5027
2341 5030
2342 3876
2342 3877
2342 3878
2342 5086
2342 5089
2342 5092
2343 3834
2343 3835
2343 3836
2343 5095
2343 5098
2343 5101
2344 3870
2344 3871
2344 3872
2344 5049
2344 5052
2344 5055
2345 3825
2345 3826
2345 3827
2345 5033
2345 5036
2345 5039
2346 3873
2346 3874
2346 3875
2346 5042
2346 5045
2346 5048
2347 3828
2347 3829
2347 3830
2347 5077
2347 5080
2347 5083
2348 3837
2348 3838
2348 3839
2348 5058
2348 5061
2348 5064
2349 3888
2349 3889
2349 3890
2349 4374
2349 4377
2349 4380
2350 3924
2350 3925
2350 3926
2350 4439
2350 4442
2350 4445
2351 3960
2351 3961
2351 3962
2351 4420
2351 4423
2351 4426
2352 3927
2352 3928
2352 3929
2352 4402
2352 4405
2352 4408
2353 3963
2353 3964
2353 3965
2353 4383
2353 4386
2353 4389
2354 3891
2354 3892
2354 3893
2354 4448
2354 4451
2354 4454
2355 3966
2355 3967
2355 3968
2355 4430
2355 4433
2355 4436
2356 3894
2356 3895
2356 3896
2356 4411
2356 4414
2356 4417
2357 3930
2357 3931
2357 3932
2357 4392
2357 4395
2357 4398
2358 3900
2358 3901
2358 3902
2358 4374
2358 4377
2358 4380
2359 3936
2359 3937
2359 3938
2359 4439
2359 4442
2359 4445
2360 3945
2360 3946
2360 3947
2360 4420
2360 4423
2360 4426
2361 3939
2361 3940
2361 3941
2361 4402
2361 4405
2361 4408
2362 3948
2362 3949
2362 3950
2362 4383
2362 4386
2362 4389
2363 3903
2363 3904
2363 3905
2363 4448
2363 4451
2363 4454
2364 3942
2364 3943
2364 3944
2364 4430
2364 4433
2364 4436
2365 3897
2365 3898
2365 3899
2365 4411
2365 4414
2365 4417
2366 3933
2366 3934
2366 3935
2366 4392
2366 4395
2366 4398
2367 3912
2367 3913
2367 3914
2367 4374
2367 4377
2367 4380
2368 3921
2368 3922
2368 3923
2368 4439
2368 4442
2368 4445
2369 3957
2369 3958
2369 3959
2369 4420
2369 4423
2369 4426
2370 3915
2370 3916
2370 3917
2370 4402
2370 4405
2370 4408
2371 3951
2371 3952
2371 3953
2371 4383
2371 4386
2371 4389
2372 3906
2372 3907
2372 3908
2372 4448
2372 4451
2372 4454
2373 3954
2373 3955
2373 3956
2373 4430
2373 4433
2373 4436
2374 3909
2374 3910
2374 3911
2374 4411
2374 4414
2374 4417
2375 3918
2375 3919
2375 3920
2375 4392
2375 4395
2375 4398
2376 3888
2376 3889
2376 3890
2376 4437
2376 4440
2376 4443
2377 3924
2377 3925
2377 3926
2377 4421
2377 4424
2377 4427
2378 3960
2378 3961
2378 3962
2378 4375
2378 4378
2378 4381
2379 3927
2379 3928
2379 3929
2379 4384
2379 4387
2379 4390
2380 3963
2380 3964
2380 3965
2380 4446
2380 4449
2380 4452
2381 3891
2381 3892
2381 3893
2381 4403
2381 4406
2381 4409
2382 3966
2382 3967
2382 3968
2382 4412
2382 4415
2382 4418
2383 3894
2383 3895
2383 3896
2383 4393
2383 4396
2383 4399
2384 3930
2384 3931
2384 3932
2384 4428
2384 4431
2384 4434
2385 3900
2385 3901
2385 3902
2385 4437
2385 4440
2385 4443
2386 3936
2386 3937
2386 3938
2386 4421
2386 4424
2386 4427
2387 3945
2387 3946
2387 3947
2387 4375
2387 4378
2387 4381
2388 3939
2388 3940
2388 3941
2388 4384
2388 4387
2388 4390
2389 3948
2389 3949
2389 3950
2389 4446
2389 4449
2389 4452
2390 3903
2390 3904
2390 3905
2390 4403
2390 4406
2390 4409
2391 3942
2391 3943
2391 3944
2391 4412
2391 4415
2391 4418
2392 3897
2392 3898
2392 3899
2392 4393
2392 4396
2392 4399
2393 3933
2393 3934
2393 3935
2393 4428
2393 4431
2393 4434
2394 3912
2394 3913
2394 3914
2394 4437
2394 4440
2394 4443
2395 3921
2395 3922
2395 3923
2395 4421
2395 4424
2395 4427
2396 3957
2396 3958
2396 3959
2396 4375
2396 4378
2396 4381
2397 3915
2397 3916
2397 3917
2397 4384
2397 4387
2397 4390
2398 3951
2398 3952
2398 3953
2398 4446
2398 4449
2398 4452
2399 3906
2399 3907
2399 3908
2399 4403
2399 4406
2399 4409
2400 3954
2400 3955
2400 3956
2400 4412
2400 4415
2400 4418
2401 3909
2401 3910
2401 3911
2401 4393
2401 4396
2401 4399
2402 3918
2402 3919
2402 3920
2402 4428
2402 4431
2402 4434
2403 3888
2403 3889
2403 3890
2403 4419
2403 4422
2403 4425
2404 3924
2404 3925
2404 3926
2404 4376
2404 4379
2404 4382
2405 3960
2405 3961
2405 3962
2405 4438
2405 4441
2405 4444
2406 3927
2406 3928
2406 3929
2406 4447
2406 4450
2406 4453
2407 3963
2407 3964
2407 3965
2407 4401
2407 4404
2407 4407
2408 3891
2408 3892
2408 3893
2408 4385
2408 4388
2408 4391
2409 3966
2409 3967
2409 3968
2409 4394
2409 4397
2409 4400
2410 3894
2410 3895
2410 3896
2410 4429
2410 4432
2410 4435
2411 3930
2411 3931
2411 3932
2411 4410
2411 4413
2411 4416
2412 3900
2412 3901
2412 3902
2412 4419
2412 4422
2412 4425
2413 3936
2413 3937
2413 3938
2413 4376
2413 4379
2413 4382
2414 3945
2414 3946
2414 3947
2414 4438
2414 4441
2414 4444
2415 3939
2415 3940
2415 3941
2415 4447
2415 4450
2415 4453
2416 3948
2416 3949
2416 3950
2416 4401
2416 4404
2416 4407
2417 3903
2417 3904
2417 3905
2417 4385
2417 4388
2417 4391
2418 3942
2418 3943
2418 3944
2418 4394
2418 4397
2418 4400
2419 3897
2419 3898
2419 3899
2419 4429
2419 4432
2419 4435
2420 3933
2420 3934
2420 3935
2420 4410
2420 4413
2420 4416
2421 3912
2421 3913
2421 3914
2421 4419
2421 4422
2421 4425
2422 3921
2422 3922
2422 3923
2422 4376
2422 4379
2422 4382
2423 3957
2423 3958
2423 3959
2423 4438
2423 4441
2423 4444
2424 3915
2424 3916
2424 3917
2424 4447
2424 4450
2424 4453
2425 3951
2425 3952
2425 3953
2425 4401
2425 4404
2425 4407
2426 3906
2426 3907
2426 3908
2426 4385
2426 4388
2426 4391
2427 3954
2427 3955
2427 3956
2427 4394
2427 4397
2427 4400
2428 3909
2428 3910
2428 3911
2428 4429
2428 4432
2428 4435
2429 3918
2429 3919
2429 3920
2429 4410
2429 4413
2429 4416
2430 3969
2430 3970
2430 3971
2430 4455
2430 4458
2430 4461
2431 4005
2431 4006
2431 4007
2431 4520
2431 4523
2431 4526
2432 4041
2432 4042
2432 4043
2432 4501
2432 4504
2432 4507
2433 4008
2433 4009
2433 4010
2433 4483
2433 4486
2433 4489
2434 4044
2434 4045
2434 4046
2434 4464
2434 4467
2434 4470
2435 3972
2435 3973
2435 3974
2435 4529
2435 4532
2435 4535
2436 4047
2436 4048
2436 4049
2436 4511
2436 4514
2436 4517
2437 3975
2437 3976
2437 3977
2437 4492
2437 4495
2437 4498
2438 4011
2438 4012
2438 4013
2438 4473
2438 4476
2438 4479
2439 3981
2439 3982
2439 3983
2439 4455
2439 4458
2439 4461
2440 4017
2440 4018
2440 4019
2440 4520
2440 4523
2440 4526
2441 4026
2441 4027
2441 4028
2441 4501
2441 4504
2441 4507
2442 4020
2442 4021
2442 4022
2442 4483
2442 4486
2442 4489
2443 4029
2443 4030
2443 4031
2443 4464
2443 4467
2443 4470
2444 3984
2444 3985
2444 3986
2444 4529
2444 4532
2444 4535
2445 4023
2445 4024
2445 4025
2445 4511
2445 4514
2445 4517
2446 3978
2446 3979
2446 3980
2446 4492
2446 4495
2446 4498
2447 4014
2447 4015
2447 4016
2447 4473
2447 4476
2447 4479
2448 3993
2448 3994
2448 3995
2448 4455
2448 4458
2448 4461
2449 4002
2449 4003
2449 4004
2449 4520
2449 4523
2449 4526
2450 4038
2450 4039
2450 4040
2450 4501
2450 4504
2450 4507
2451 3996
2451 3997
2451 3998
2451 4483
2451 4486
2451 4489
2452 4032
2452 4033
2452 4034
2452 4464
2452 4467
2452 4470
2453 3987
2453 3988
2453 3989
2453 4529
2453 4532
2453 4535
2454 4035
2454 4036
2454 4037
2454 4511
2454 4514
2454 4517
2455 3990
2455 3991
2455 3992
2455 4492
2455 4495
2455 4498
2456 3999
2456 4000
2456 4001
2456 4473
2456 4476
2456 4479
2457 3969
2457 3970
2457 3971
2457 4518
2457 4521
2457 4524
2458 4005
2458 4006
2458 4007
2458 4502
2458 4505
2458 4508
2459 4041
2459 4042
2459 4043
2459 4456
2459 4459
2459 4462
2460 4008
2460 4009
2460 4010
2460 4465
2460 4468
2460 4471
2461 4044
2461 4045
2461 4046
2461 4527
2461 4530
2461 4533
2462 3972
2462 3973
2462 3974
2462 4484
2462 4487
2462 4490
2463 4047
2463 4048
2463 4049
2463 4493
2463 4496
2463 4499
2464 3975
2464 3976
2464 3977
2464 4474
2464 4477
2464 4480
2465 4011
2465 4012
2465 4013
2465 4509
2465 4512
2465 4515
2466 3981
2466 3982
2466 3983
2466 4518
2466 4521
2466 4524
2467 4017
2467 4018
2467 4019
2467 4502
2467 4505
2467 4508
2468 4026
2468 4027
2468 4028
2468 4456
2468 4459
2468 4462
2469 4020
2469 4021
2469 4022
2469 4465
2469 4468
2469 4471
2470 4029
2470 4030
2470 4031
2470 4527
2470 4530
2470 4533
2471 3984
2471 3985
2471 3986
2471 4484
2471 4487
2471 4490
2472 4023
2472 4024
2472 4025
2472 4493
2472 4496
2472 4499
2473 3978
2473 3979
2473 3980
2473 4474
2473 4477
2473 4480
2474 4014
2474 4015
2474 4016
2474 4509
2474 4512
2474 4515
2475 3993
2475 3994
2475 3995
2475 4518
2475 4521
2475 4524
2476 4002
2476 4003
2476 4004
2476 4502
2476 4505
2476 4508
2477 4038
2477 4039
2477 4040
2477 4456
2477 4459
2477 4462
2478 3996
2478 3997
2478 3998
2478 4465
2478 4468
2478 4471
2479 4032
2479 4033
2479 4034
2479 4527
2479 4530
2479 4533
2480 3987
2480 3988
2480 3989
2480 4484
2480 4487
2480 4490
2481 4035
2481 4036
2481 4037
2481 4493
2481 4496
2481 4499
2482 3990
2482 3991
2482 3992
2482 4474
2482 4477
2482 4480
2483 3999
2483 4000
2483 4001
2483 4509
2483 4512
2483 4515
2484 3969
2484 3970
2484 3971
2484 4500
2484 4503
2484 4506
2485 4005
2485 4006
2485 4007
2485 4457
2485 4460
2485 4463
2486 4041
2486 4042
2486 4043
2486 4519
2486 4522
2486 4525
2487 4008
2487 4009
2487 4010
2487 4528
2487 4531
2487 4534
2488 4044
2488 4045
2488 4046
2488 4482
2488 4485
2488 4488
2489 3972
2489 3973
2489 3974
2489 4466
2489 4469
2489 4472
2490 4047
2490 4048
2490 4049
2490 4475
2490 4478
2490 4481
2491 3975
2491 3976
2491 3977
2491 4510
2491 4513
2491 4516
2492 4011
2492 4012
2492 4013
2492 4491
2492 4494
2492 4497
2493 3981
2493 3982
2493 3983
2493 4500
2493 4503
2493 4506
2494 4017
2494 4018
2494 4019
2494 4457
2494 4460
2494 4463
2495 4026
2495 4027
2495 4028
2495 4519
2495 4522
2495 4525
2496 4020
2496 4021
2496 4022
2496 4528
2496 4531
2496 4534
2497 4029
2497 4030
2497 4031
2497 4482
2497 4485
2497 4488
2498 3984
2498 3985
2498 3986
2498 4466
2498 4469
2498 4472
2499 4023
2499 4024
2499 4025
2499 4475
2499 4478
2499 4481
2500 3978
2500 3979
2500 3980
2500 4510
2500 4513
2500 4516
2501 4014
2501 4015
2501 4016
2501 4491
2501 4494
2501 4497
2502 3993
2502 3994
2502 3995
2502 4500
2502 4503
2502 4506
2503 4002
2503 4003
2503 4004
2503 4457
2503 4460
2503 4463
2504 4038
2504 4039
2504 4040
2504 4519
2504 4522
2504 4525
2505 3996
2505 3997
2505 3998
2505 4528
2505 4531
2505 4534
2506 4032
2506 4033
2506 4034
2506 4482
2506 4485
2506 4488
2507 3987
2507 3988
2507 3989
2507 4466
2507 4469
2507 4472
2508 4035
2508 4036
2508 4037
2508 4475
2508 4478
2508 4481
2509 3990
2509 3991
2509 3992
2509 4510
2509 4513
2509 4516
2510 3999
2510 4000
2510 4001
2510 4491
2510 4494
2510 4497
2511 4050
2511 4051
2511 4052
2511 4536
2511 4539
2511 4542
2512 4086
2512 4087
2512 4088
2512 4601
2512 4604
2512 4607
2513 4122
2513 4123
2513 4124
2513 4582
2513 4585
2513 4588
2514 4089
2514 4090
2514 4091
2514 4564
2514 4567
2514 4570
2515 4125
2515 4126
2515 4127
2515 4545
2515 4548
2515 4551
2516 4053
2516 4054
2516 4055
2516 4610
2516 4613
2516 4616
2517 4128
2517 4129
2517 4130
2517 4592
2517 4595
2517 4598
2518 4056
2518 4057
2518 4058
2518 4573
2518 4576
2518 4579
2519 4092
2519 4093
2519 4094
2519 4554
2519 4557
2519 4560
2520 4062
2520 4063
2520 4064
2520 4536
2520 4539
2520 4542
2521 4098
2521 4099
2521 4100
2521 4601
2521 4604
2521 4607
2522 4107
2522 4108
2522 4109
2522 4582
2522 4585
2522 4588
2523 4101
2523 4102
2523 4103
2523 4564
2523 4567
2523 4570
2524 4110
2524 4111
2524 4112
2524 4545
2524 4548
2524 4551
2525 4065
2525 4066
2525 4067
2525 4610
2525 4613
2525 4616
2526 4104
2526 4105
2526 4106
2526 4592
2526 4595
2526 4598
2527 4059
2527 4060
2527 4061
2527 4573
2527 4576
2527 4579
2528 4095
2528 4096
2528 4097
2528 4554
2528 4557
2528 4560
2529 4074
2529 4075
2529 4076
2529 4536
2529 4539
2529 4542
2530 4083
2530 4084
2530 4085
2530 4601
2530 4604
2530 4607
2531 4119
2531 4120
2531 4121
2531 4582
2531 4585
2531 4588
2532 4077
2532 4078
2532 4079
2532 4564
2532 4567
2532 4570
2533 4113
2533 4114
2533 4115
2533 4545
2533 4548
2533 4551
2534 4068
2534 4069
2534 4070
2534 4610
2534 4613
2534 4616
2535 4116
2535 4117
2535 4118
2535 4592
2535 4595
2535 4598
2536 4071
2536 4072
2536 4073
2536 4573
2536 4576
2536 4579
2537 4080
2537 4081
2537 4082
2537 4554
2537 4557
2537 4560
2538 4050
2538 4051
2538 4052
2538 4599
2538 4602
2538 4605
2539 4086
2539 4087
2539 4088
2539 4583
2539 4586
2539 4589
2540 4122
2540 4123
2540 4124
2540 4537
2540 4540
2540 4543
2541 4089
2541 4090
2541 4091
2541 4546
2541 4549
2541 4552
2542 4125
2542 4126
2542 4127
2542 4608
2542 4611
2542 4614
2543 4053
2543 4054
2543 4055
2543 4565
2543 4568
2543 4571
2544 4128
2544 4129
2544 4130
2544 4574
2544 4577
2544 4580
2545 4056
2545 4057
2545 4058
2545 4555
2545 4558
2545 4561
2546 4092
2546 4093
2546 4094
2546 4590
2546 4593
2546 4596
2547 4062
2547 4063
2547 4064
2547 4599
2547 4602
2547 4605
2548 4098
2548 4099
2548 4100
2548 4583
2548 4586
2548 4589
2549 4107
2549 4108
2549 4109
2549 4537
2549 4540
2549 4543
2550 4101
2550 4102
2550 4103
2550 4546
2550 4549
2550 4552
2551 4110
2551 4111
2551 4112
2551 4608
2551 4611
2551 4614
2552 4065
2552 4066
2552 4067
2552 4565
2552 4568
2552 4571
2553 4104
2553 4105
2553 4106
2553 4574
2553 4577
2553 4580
2554 4059
2554 4060
2554 4061
2554 4555
2554 4558
2554 4561
2555 4095
2555 4096
2555 4097
2555 4590
2555 4593
2555 4596
2556 4074
2556 4075
2556 4076
2556 4599
2556 4602
2556 4605
2557 4083
2557 4084
2557 4085
2557 4583
2557 4586
2557 4589
2558 4119
2558 4120
2558 4121
2558 4537
2558 4540
2558 4543
2559 4077
2559 4078
2559 4079
2559 4546
2559 4549
2559 4552
2560 4113
2560 4114
2560 4115
2560 4608
2560 4611
2560 4614
2561 4068
2561 4069
2561 4070
2561 4565
2561 4568
2561 4571
2562 4116
2562 4117
2562 4118
2562 4574
2562 4577
2562 4580
2563 4071
2563 4072
2563 4073
2563 4555
2563 4558
2563 4561
2564 4080
2564 4081
2564 4082
2564 4590
2564 4593
2564 4596
2565 4050
2565 4051
2565 4052
2565 4581
2565 4584
2565 4587
2566 4086
2566 4087
2566 4088
2566 4538
2566 4541
2566 4544
2567 4122
2567 4123
2567 4124
2567 4600
2567 4603
2567 4606
2568 4089
2568 4090
2568 4091
2568 4609
2568 4612
2568 4615
2569 4125
2569 4126
2569 4127
2569 4563
2569 4566
2569 4569
2570 4053
2570 4054
2570 4055
2570 4547
2570 4550
2570 4553
2571 4128
2571 4129
2571 4130
2571 4556
2571 4559
2571 4562
2572 4056
2572 4057
2572 4058
2572 4591
2572 4594
2572 4597
2573 4092
2573 4093
2573 4094
2573 4572
2573 4575
2573 4578
2574 4062
2574 4063
2574 4064
2574 4581
2574 4584
2574 4587
2575 4098
2575 4099
2575 4100
2575 4538
2575 4541
2575 4544
2576 4107
2576 4108
2576 4109
2576 4600
2576 4603
2576 4606
2577 4101
2577 4102
2577 4103
2577 4609
2577 4612
2577 4615
2578 4110
2578 4111
2578 4112
2578 4563
2578 4566
2578 4569
2579 4065
2579 4066
2579 4067
2579 4547
2579 4550
2579 4553
2580 4104
2580 4105
2580 4106
2580 4556
2580 4559
2580 4562
2581 4059
2581 4060
2581 4061
2581 4591
2581 4594
2581 4597
2582 4095
2582 4096
2582 4097
2582 4572
2582 4575
2582 4578
2583 4074
2583 4075
2583 4076
2583 4581
2583 4584
2583 4587
2584 4083
2584 4084
2584 4085
2584 4538
2584 4541
2584 4544
2585 4119
2585 4120
2585 4121
2585 4600
2585 4603
2585 4606
2586 4077
2586 4078
2586 4079
2586 4609
2586 4612
2586 4615
2587 4113
2587 4114
2587 4115
2587 4563
2587 4566
2587 4569
2588 4068
2588 4069
2588 4070
2588 4547
2588 4550
2588 4553
2589 4116
2589 4117
2589 4118
2589 4556
2589 4559
2589 4562
2590 4071
2590 4072
2590 4073
2590 4591
2590 4594
2590 4597
2591 4080
2591 4081
2591 4082
2591 4572
2591 4575
2591 4578
2592 4131
2592 4132
2592 4133
2592 4617
2592 4620
2592 4623
2593 4167
2593 4168
2593 4169
2593 4682
2593 4685
2593 4688
2594 4203
2594 4204
2594 4205
2594 4663
2594 4666
2594 4669
2595 4170
2595 4171
2595 4172
2595 4645
2595 4648
2595 4651
2596 4206
2596 4207
2596 4208
2596 4626
2596 4629
2596 4632
2597 4134
2597 4135
2597 4136
2597 4691
2597 4694
2597 4697
2598 4209
2598 4210
2598 4211
2598 4673
2598 4676
2598 4679
2599 4137
2599 4138
2599 4139
2599 4654
2599 4657
2599 4660
2600 4173
2600 4174
2600 4175
2600 4635
2600 4638
2600 4641
2601 4143
2601 4144
2601 4145
2601 4617
2601 4620
2601 4623
2602 4179
2602 4180
2602 4181
2602 4682
2602 4685
2602 4688
2603 4188
2603 4189
2603 4190
2603 4663
2603 4666
2603 4669
2604 4182
2604 4183
2604 4184
2604 4645
2604 4648
2604 4651
2605 4191
2605 4192
2605 4193
2605 4626
2605 4629
2605 4632
2606 4146
2606 4147
2606 4148
2606 4691
2606 4694
2606 4697
2607 4185
2607 4186
2607 4187
2607 4673
2607 4676
2607 4679
2608 4140
2608 4141
2608 4142
2608 4654
2608 4657
2608 4660
2609 4176
2609 4177
2609 4178
2609 4635
2609 4638
2609 4641
2610 4155
2610 4156
2610 4157
2610 4617
2610 4620
2610 4623
2611 4164
2611 4165
2611 4166
2611 4682
2611 4685
2611 4688
2612 4200
2612 4201
2612 4202
2612 4663
2612 4666
2612 4669
2613 4158
2613 4159
2613 4160
2613 4645
2613 4648
2613 4651
2614 4194
2614 4195
2614 4196
2614 4626
2614 4629
2614 4632
2615 4149
2615 4150
2615 4151
2615 4691
2615 4694
2615 4697
2616 4197
2616 4198
2616 4199
2616 4673
2616 4676
2616 4679
2617 4152
2617 4153
2617 4154
2617 4654
2617 4657
2617 4660
2618 4161
2618 4162
2618 4163
2618 4635
2618 4638
2618 4641
2619 4131
2619 4132
2619 4133
2619 4680
2619 4683
2619 4686
2620 4167
2620 4168
2620 4169
2620 4664
2620 4667
2620 4670
2621 4203
2621 4204
2621 4205
2621 4618
2621 4621
2621 4624
2622 4170
2622 4171
2622 4172
2622 4627
2622 4630
2622 4633
2623 4206
2623 4207
2623 4208
2623 4689
2623 4692
2623 4695
2624 4134
2624 4135
2624 4136
2624 4646
2624 4649
2624 4652
2625 4209
2625 4210
2625 4211
2625 4655
2625 4658
2625 4661
2626 4137
2626 4138
2626 4139
2626 4636
2626 4639
2626 4642
2627 4173
2627 4174
2627 4175
2627 4671
2627 4674
2627 4677
2628 4143
2628 4144
2628 4145
2628 4680
2628 4683
2628 4686
2629 4179
2629 4180
2629 4181
2629 4664
2629 4667
2629 4670
2630 4188
2630 4189
2630 4190
2630 4618
2630 4621
2630 4624
2631 4182
2631 4183
2631 4184
2631 4627
2631 4630
2631 4633
2632 4191
2632 4192
2632 4193
2632 4689
2632 4692
2632 4695
2633 4146
2633 4147
2633 4148
2633 4646
2633 4649
2633 4652
2634 4185
2634 4186
2634 4187
2634 4655
2634 4658
2634 4661
2635 4140
2635 4141
2635 4142
2635 4636
2635 4639
2635 4642
2636 4176
2636 4177
2636 4178
2636 4671
2636 4674
2636 4677
2637 4155
2637 4156
2637 4157
2637 4680
2637 4683
2637 4686
2638 4164
2638 4165
2638 4166
2638 4664
2638 4667
2638 4670
2639 4200
2639 4201
2639 4202
2639 4618
2639 4621
2639 4624
2640 4158
2640 4159
2640 4160
2640 4627
2640 4630
2640 4633
2641 4194
2641 4195
2641 4196
2641 4689
2641 4692
2641 4695
2642 4149
2642 4150
2642 4151
2642 4646
2642 4649
2642 4652
2643 4197
2643 4198
2643 4199
2643 4655
2643 4658
2643 4661
2644 4152
2644 4153
2644 4154
2644 4636
2644 4639
2644 4642
2645 4161
2645 4162
2645 4163
2645 4671
2645 4674
2645 4677
2646 4131
2646 4132
2646 4133
2646 4662
2646 4665
2646 4668
2647 4167
2647 4168
2647 4169
2647 4619
2647 4622
2647 4625
2648 4203
2648 4204
2648 4205
2648 4681
2648 4684
2648 4687
2649 4170
2649 4171
2649 4172
2649 4690
2649 4693
2649 4696
2650 4206
2650 4207
2650 4208
2650 4644
2650 4647
2650 4650
2651 4134
2651 4135
2651 4136
2651 4628
2651 4631
2651 4634
2652 4209
2652 4210
2652 4211
2652 4637
2652 4640
2652 4643
2653 4137
2653 4138
2653 4139
2653 4672
2653 4675
2653 4678
2654 4173
2654 4174
2654 4175
2654 4653
2654 4656
2654 4659
2655 4143
2655 4144
2655 4145
2655 4662
2655 4665
2655 4668
2656 4179
2656 4180
2656 4181
2656 4619
2656 4622
2656 4625
2657 4188
2657 4189
2657 4190
2657 4681
2657 4684
2657 4687
2658 4182
2658 4183
2658 4184
2658 4690
2658 4693
2658 4696
2659 4191
2659 4192
2659 4193
2659 4644
2659 4647
2659 4650
2660 4146
2660 4147
2660 4148
2660 4628
2660 4631
2660 4634
2661 4185
2661 4186
2661 4187
2661 4637
2661 4640
2661 4643
2662 4140
2662 4141
2662 4142
2662 4672
2662 4675
2662 4678
2663 4176
2663 4177
2663 4178
2663 4653
2663 4656
2663 4659
2664 4155
2664 4156
2664 4157
2664 4662
2664 4665
2664 4668
2665 4164
2665 4165
2665 4166
2665 4619
2665 4622
2665 4625
2666 4200
2666 4201
2666 4202
2666 4681
2666 4684
2666 4687
2667 4158
2667 4159
2667 4160
2667 4690
2667 4693
2667 4696
2668 4194
2668 4195
2668 4196
2668 4644
2668 4647
2668 4650
2669 4149
2669 4150
2669 4151
2669 4628
2669 4631
2669 4634
2670 4197
2670 4198
2670 4199
2670 4637
2670 4640
2670 4643
2671 4152
2671 4153
2671 4154
2671 4672
2671 4675
2671 4678
2672 4161
2672 4162
2672 4163
2672 4653
2672 4656
2672 4659
2673 4212
2673 4213
2673 4214
2673 4698
2673 4701
2673 4704
2674 4248
2674 4249
2674 4250
2674 4763
2674 4766
2674 4769
2675 4284
2675 4285
2675 4286
2675 4744
2675 4747
2675 4750
2676 4251
2676 4252
2676 4253
2676 4726
2676 4729
2676 4732
2677 4287
2677 4288
2677 4289
2677 4707
2677 4710
2677 4713
2678 4215
2678 4216
2678 4217
2678 4772
2678 4775
2678 4778
2679 4290
2679 4291
2679 4292
2679 4754
2679 4757
2679 4760
2680 4218
2680 4219
2680 4220
2680 4735
2680 4738
2680 4741
2681 4254
2681 4255
2681 4256
2681 4716
2681 4719
2681 4722
2682 4224
2682 4225
2682 4226
2682 4698
2682 4701
2682 4704
2683 4260
2683 4261
2683 4262
2683 4763
2683 4766
2683 4769
2684 4269
2684 4270
2684 4271
2684 4744
2684 4747
2684 4750
2685 4263
2685 4264
2685 4265
2685 4726
2685 4729
2685 4732
2686 4272
2686 4273
2686 4274
2686 4707
2686 4710
2686 4713
2687 4227
2687 4228
2687 4229
2687 4772
2687 4775
2687 4778
2688 4266
2688 4267
2688 4268
2688 4754
2688 4757
2688 4760
2689 4221
2689 4222
2689 4223
2689 4735
2689 4738
2689 4741
2690 4257
2690 4258
2690 4259
2690 4716
2690 4719
2690 4722
2691 4236
2691 4237
2691 4238
2691 4698
2691 4701
2691 4704
2692 4245
2692 4246
2692 4247
2692 4763
2692 4766
2692 4769
2693 4281
2693 4282
2693 4283
2693 4744
2693 4747
2693 4750
2694 4239
2694 4240
2694 4241
2694 4726
2694 4729
2694 4732
2695 4275
2695 4276
2695 4277
2695 4707
2695 4710
2695 4713
2696 4230
2696 4231
2696 4232
2696 4772
2696 4775
2696 4778
2697 4278
2697 4279
2697 4280
2697 4754
2697 4757
2697 4760
2698 4233
2698 4234
2698 4235
2698 4735
2698 4738
2698 4741
2699 4242
2699 4243
2699 4244
2699 4716
2699 4719
2699 4722
2700 4212
2700 4213
2700 4214
2700 4761
2700 4764
2700 4767
2701 4248
2701 4249
2701 4250
2701 4745
2701 4748
2701 4751
2702 4284
2702 4285
2702 4286
2702 4699
2702 4702
2702 4705
2703 4251
2703 4252
2703 4253
2703 4708
2703 4711
2703 4714
2704 4287
2704 4288
2704 4289
2704 4770
2704 4773
2704 4776
2705 4215
2705 4216
2705 4217
2705 4727
2705 4730
2705 4733
2706 4290
2706 4291
2706 4292
2706 4736
2706 4739
2706 4742
2707 4218
2707 4219
2707 4220
2707 4717
2707 4720
2707 4723
2708 4254
2708 4255
2708 4256
2708 4752
2708 4755
2708 4758
2709 4224
2709 4225
2709 4226
2709 4761
2709 4764
2709 4767
2710 4260
2710 4261
2710 4262
2710 4745
2710 4748
2710 4751
2711 4269
2711 4270
2711 4271
2711 4699
2711 4702
2711 4705
2712 4263
2712 4264
2712 4265
2712 4708
2712 4711
2712 4714
2713 4272
2713 4273
2713 4274
2713 4770
2713 4773
2713 4776
2714 4227
2714 4228
2714 4229
2714 4727
2714 4730
2714 4733
2715 4266
2715 4267
2715 4268
2715 4736
2715 4739
2715 4742
2716 4221
2716 4222
2716 4223
2716 4717
2716 4720
2716 4723
2717 4257
2717 4258
2717 4259
2717 4752
2717 4755
2717 4758
2718 4236
2718 4237
2718 4238
2718 4761
2718 4764
2718 4767
2719 4245
2719 4246
2719 4247
2719 4745
2719 4748
2719 4751
2720 4281
2720 4282
2720 4283
2720 4699
2720 4702
2720 4705
2721 4239
2721 4240
2721 4241
2721 4708
2721 4711
2721 4714
2722 4275
2722 4276
2722 4277
2722 4770
2722 4773
2722 4776
2723 4230
2723 4231
2723 4232
2723 4727
2723 4730
2723 4733
2724 4278
2724 4279
2724 4280
2724 4736
2724 4739
2724 4742
2725 4233
2725 4234
2725 4235
2725 4717
2725 4720
2725 4723
2726 4242
2726 4243
2726 4244
2726 4752
2726 4755
2726 4758
2727 4212
2727 4213
2727 4214
2727 4743
2727 4746
2727 4749
2728 4248
2728 4249
2728 4250
2728 4700
2728 4703
2728 4706
2729 4284
2729 4285
2729 4286
2729 4762
2729 4765
2729 4768
2730 4251
2730 4252
2730 4253
2730 4771
2730 4774
2730 4777
2731 4287
2731 4288
2731 4289
2731 4725
2731 4728
2731 4731
2732 4215
2732 4216
2732 4217
2732 4709
2732 4712
2732 4715
2733 4290
2733 4291
2733 4292
2733 4718
2733 4721
2733 4724
2734 4218
2734 4219
2734 4220
2734 4753
2734 4756
2734 4759
2735 4254
2735 4255
2735 4256
2735 4734
2735 4737
2735 4740
2736 4224
2736 4225
2736 4226
2736 4743
2736 4746
2736 4749
2737 4260
2737 4261
2737 4262
2737 4700
2737 4703
2737 4706
2738 4269
2738 4270
2738 4271
2738 4762
2738 4765
2738 4768
2739 4263
2739 4264
2739 4265
2739 4771
2739 4774
2739 4777
2740 4272
2740 4273
2740 4274
2740 4725
2740 4728
2740 4731
2741 4227
2741 4228
2741 4229
2741 4709
2741 4712
2741 4715
2742 4266
2742 4267
2742 4268
2742 4718
2742 4721
2742 4724
2743 4221
2743 4222
2743 4223
2743 4753
2743 4756
2743 4759
2744 4257
2744 4258
2744 4259
2744 4734
2744 4737
2744 4740
2745 4236
2745 4237
2745 4238
2745 4743
2745 4746
2745 4749
2746 4245
2746 4246
2746 4247
2746 4700
2746 4703
2746 4706
2747 4281
2747 4282
2747 4283
2747 4762
2747 4765
2747 4768
2748 4239
2748 4240
2748 4241
2748 4771
2748 4774
2748 4777
2749 4275
2749 4276
2749 4277
2749 4725
2749 4728
2749 4731
2750 4230
2750 4231
2750 4232
2750 4709
2750 4712
2750 4715
2751 4278
2751 4279
2751 4280
2751 4718
2751 4721
2751 4724
2752 4233
2752 4234
2752 4235
2752 4753
2752 4756
2752 4759
2753 4242
2753 4243
2753 4244
2753 4734
2753 4737
2753 4740
2754 4293
2754 4294
2754 4295
2754 4779
2754 4782
2754 4785
2755 4329
2755 4330
2755 4331
2755 4844
2755 4847
2755 4850
2756 4365
2756 4366
2756 4367
2756 4825
2756 4828
2756 4831
2757 4332
2757 4333
2757 4334
2757 4807
2757 4810
2757 4813
2758 4368
2758 4369
2758 4370
2758 4788
2758 4791
2758 4794
2759 4296
2759 4297
2759 4298
2759 4853
2759 4856
2759 4859
2760 4371
2760 4372
2760 4373
2760 4835
2760 4838
2760 4841
2761 4299
2761 4300
2761 4301
2761 4816
2761 4819
2761 4822
2762 4335
2762 4336
2762 4337
2762 4797
2762 4800
2762 4803
2763 4305
2763 4306
2763 4307
2763 4779
2763 4782
2763 4785
2764 4341
2764 4342
2764 4343
2764 4844
2764 4847
2764 4850
2765 4350
2765 4351
2765 4352
2765 4825
2765 4828
2765 4831
2766 4344
2766 4345
2766 4346
2766 4807
2766 4810
2766 4813
2767 4353
2767 4354
2767 4355
2767 4788
2767 4791
2767 4794
2768 4308
2768 4309
2768 4310
2768 4853
2768 4856
2768 4859
2769 4347
2769 4348
2769 4349
2769 4835
2769 4838
2769 4841
2770 4302
2770 4303
2770 4304
2770 4816
2770 4819
2770 4822
2771 4338
2771 4339
2771 4340
2771 4797
2771 4800
2771 4803
2772 4317
2772 4318
2772 4319
2772 4779
2772 4782
2772 4785
2773 4326
2773 4327
2773 4328
2773 4844
2773 4847
2773 4850
2774 4362
2774 4363
2774 4364
2774 4825
2774 4828
2774 4831
2775 4320
2775 4321
2775 4322
2775 4807
2775 4810
2775 4813
2776 4356
2776 4357
2776 4358
2776 4788
2776 4791
2776 4794
2777 4311
2777 4312
2777 4313
2777 4853
2777 4856
2777 4859
2778 4359
2778 4360
2778 4361
2778 4835
2778 4838
2778 4841
2779 4314
2779 4315
2779 4316
2779 4816
2779 4819
2779 4822
2780 4323
2780 4324
2780 4325
2780 4797
2780 4800
2780 4803
2781 4293
2781 4294
2781 4295
2781 4842
2781 4845
2781 4848
2782 4329
2782 4330
2782 4331
2782 4826
2782 4829
2782 4832
2783 4365
2783 4366
2783 4367
2783 4780
2783 4783
2783 4786
2784 4332
2784 4333
2784 4334
2784 4789
2784 4792
2784 4795
2785 4368
2785 4369
2785 4370
2785 4851
2785 4854
2785 4857
2786 4296
2786 4297
2786 4298
2786 4808
2786 4811
2786 4814
2787 4371
2787 4372
2787 4373
2787 4817
2787 4820
2787 4823
2788 4299
2788 4300
2788 4301
2788 4798
2788 4801
2788 4804
2789 4335
2789 4336
2789 4337
2789 4833
2789 4836
2789 4839
2790 4305
2790 4306
2790 4307
2790 4842
2790 4845
2790 4848
2791 4341
2791 4342
2791 4343
2791 4826
2791 4829
2791 4832
2792 4350
2792 4351
2792 4352
2792 4780
2792 4783
2792 4786
2793 4344
2793 4345
2793 4346
2793 4789
2793 4792
2793 4795
2794 4353
2794 4354
2794 4355
2794 4851
2794 4854
2794 4857
2795 4308
2795 4309
2795 4310
2795 4808
2795 4811
2795 4814
2796 4347
2796 4348
2796 4349
2796 4817
2796 4820
2796 4823
2797 4302
2797 4303
2797 4304
2797 4798
2797 4801
2797 4804
2798 4338
2798 4339
2798 4340
2798 4833
2798 4836
2798 4839
2799 4317
2799 4318
2799 4319
2799 4842
2799 4845
2799 4848
2800 4326
2800 4327
2800 4328
2800 4826
2800 4829
2800 4832
2801 4362
2801 4363
2801 4364
2801 4780
2801 4783
2801 4786
2802 4320
2802 4321
2802 4322
2802 4789
2802 4792
2802 4795
2803 4356
2803 4357
2803 4358
2803 4851
2803 4854
2803 4857
2804 4311
2804 4312
2804 4313
2804 4808
2804 4811
2804 4814
2805 4359
2805 4360
2805 4361
2805 4817
2805 4820
2805 4823
2806 4314
2806 4315
2806 4316
2806 4798
2806 4801
2806 4804
2807 4323
2807 4324
2807 4325
2807 4833
2807 4836
2807 4839
2808 4293
2808 4294
2808 4295
2808 4824
2808 4827
2808 4830
2809 4329
2809 4330
2809 4331
2809 4781
2809 4784
2809 4787
2810 4365
2810 4366
2810 4367
2810 4843
2810 4846
2810 4849
2811 4332
2811 4333
2811 4334
2811 4852
2811 4855
2811 4858
2812 4368
2812 4369
2812 4370
2812 4806
2812 4809
2812 4812
2813 4296
2813 4297
2813 4298
2813 4790
2813 4793
2813 4796
2814 4371
2814 4372
2814 4373
2814 4799
2814 4802
2814 4805
2815 4299
2815 4300
2815 4301
2815 4834
2815 4837
2815 4840
2816 4335
2816 4336
2816 4337
2816 4815
2816 4818
2816 4821
2817 4305
2817 4306
2817 4307
2817 4824
2817 4827
2817 4830
2818 4341
2818 4342
2818 4343
2818 4781
2818 4784
2818 4787
2819 4350
2819 4351
2819 4352
2819 4843
2819 4846
2819 4849
2820 4344
2820 4345
2820 4346
2820 4852
2820 4855
2820 4858
2821 4353
2821 4354
2821 4355
2821 4806
2821 4809
2821 4812
2822 4308
2822 4309
2822 4310
2822 4790
2822 4793
2822 4796
2823 4347
2823 4348
2823 4349
2823 4799
2823 4802
2823 4805
2824 4302
2824 4303
2824 4304
2824 4834
2824 4837
2824 4840
2825 4338
2825 4339
2825 4340
2825 4815
2825 4818
2825 4821
2826 4317
2826 4318
2826 4319
2826 4824
2826 4827
2826 4830
2827 4326
2827 4327
2827 4328
2827 4781
2827 4784
2827 4787
2828 4362
2828 4363
2828 4364
2828 4843
2828 4846
2828 4849
2829 4320
2829 4321
2829 4322
2829 4852
2829 4855
2829 4858
2830 4356
2830 4357
2830 4358
2830 4806
2830 4809
2830 4812
2831 4311
2831 4312
2831 4313
2831 4790
2831 4793
2831 4796
2832 4359
2832 4360
2832 4361
2832 4799
2832 4802
2832 4805
2833 4314
2833 4315
2833 4316
2833 4834
2833 4837
2833 4840
2834 4323
2834 4324
2834 4325
2834 4815
2834 4818
2834 4821
2835 3645
2835 3646
2835 3647
2835 4860
2835 4863
2835 4866
2836 3681
2836 3682
2836 3683
2836 4925
2836 4928
2836 4931
2837 3717
2837 3718
2837 3719
2837 4906
2837 4909
2837 4912
2838 3684
2838 3685
2838 3686
2838 4888
2838 4891
2838 4894
2839 3720
2839 3721
2839 3722
2839 4869
2839 4872
2839 4875
2840 3648
2840 3649
2840 3650
2840 4934
2840 4937
2840 4940
2841 3723
2841 3724
2841 3725
2841 4916
2841 4919
2841 4922
2842 3651
2842 3652
2842 3653
2842 4897
2842 4900
2842 4903
2843 3687
2843 3688
2843 3689
2843 4878
2843 4881
2843 4884
2844 3657
2844 3658
2844 3659
2844 4860
2844 4863
2844 4866
2845 3693
2845 3694
2845 3695
2845 4925
2845 4928
2845 4931
2846 3702
2846 3703
2846 3704
2846 4906
2846 4909
2846 4912
2847 3696
2847 3697
2847 3698
2847 4888
2847 4891
2847 4894
2848 3705
2848 3706
2848 3707
2848 4869
2848 4872
2848 4875
2849 3660
2849 3661
2849 3662
2849 4934
2849 4937
2849 4940
2850 3699
2850 3700
2850 3701
2850 4916
2850 4919
2850 4922
2851 3654
2851 3655
2851 3656
2851 4897
2851 4900
2851 4903
2852 3690
2852 3691
2852 3692
2852 4878
2852 4881
2852 4884
2853 3669
2853 3670
2853 3671
2853 4860
2853 4863
2853 4866
2854 3678
2854 3679
2854 3680
2854 4925
2854 4928
2854 4931
2855 3714
2855 3715
2855 3716
2855 4906
2855 4909
2855 4912
2856 3672
2856 3673
2856 3674
2856 4888
2856 4891
2856 4894
2857 3708
2857 3709
2857 3710
2857 4869
2857 4872
2857 4875
2858 3663
2858 3664
2858 3665
2858 4934
2858 4937
2858 4940
2859 3711
2859 3712
2859 3713
2859 4916
2859 4919
2859 4922
2860 3666
2860 3667
2860 3668
2860 4897
2860 4900
2860 4903
2861 3675
2861 3676
2861 3677
2861 4878
2861 4881
2861 4884
2862 3645
2862 3646
2862 3647
2862 4923
2862 4926
2862 4929
2863 3681
2863 3682
2863 3683
2863 4907
2863 4910
2863 4913
2864 3717
2864 3718
2864 3719
2864 4861
2864 4864
2864 4867
2865 3684
2865 3685
2865 3686
2865 4870
2865 4873
2865 4876
2866 3720
2866 3721
2866 3722
2866 4932
2866 4935
2866 4938
2867 3648
2867 3649
2867 3650
2867 4889
2867 4892
2867 4895
2868 3723
2868 3724
2868 3725
2868 4898
2868 4901
2868 4904
2869 3651
2869 3652
2869 3653
2869 4879
2869 4882
2869 4885
2870 3687
2870 3688
2870 3689
2870 4914
2870 4917
2870 4920
2871 3657
2871 3658
2871 3659
2871 4923
2871 4926
2871 4929
2872 3693
2872 3694
2872 3695
2872 4907
2872 4910
2872 4913
2873 3702
2873 3703
2873 3704
2873 4861
2873 4864
2873 4867
2874 3696
2874 3697
2874 3698
2874 4870
2874 4873
2874 4876
2875 3705
2875 3706
2875 3707
2875 4932
2875 4935
2875 4938
2876 3660
2876 3661
2876 3662
2876 4889
2876 4892
2876 4895
2877 3699
2877 3700
2877 3701
2877 4898
2877 4901
2877 4904
2878 3654
2878 3655
2878 3656
2878 4879
2878 4882
2878 4885
2879 3690
2879 3691
2879 3692
2879 4914
2879 4917
2879 4920
2880 3669
2880 3670
2880 3671
2880 4923
2880 4926
2880 4929
2881 3678
2881 3679
2881 3680
2881 4907
2881 4910
2881 4913
2882 3714
2882 3715
2882 3716
2882 4861
2882 4864
2882 4867
2883 3672
2883 3673
2883 3674
2883 4870
2883 4873
2883 4876
2884 3708
2884 3709
2884 3710
2884 4932
2884 4935
2884 4938
2885 3663
2885 3664
2885 3665
2885 4889
2885 4892
2885 4895
2886 3711
2886 3712
2886 3713
2886 4898
2886 4901
2886 4904
2887 3666
2887 3667
2887 3668
2887 4879
2887 4882
2887 4885
2888 3675
2888 3676
2888 3677
2888 4914
2888 4917
2888 4920
2889 3645
2889 3646
2889 3647
2889 4905
2889 4908
2889 4911
2890 3681
2890 3682
2890 3683
2890 4862
2890 4865
2890 4868
2891 3717
2891 3718
2891 3719
2891 4924
2891 4927
2891 4930
2892 3684
2892 3685
2892 3686
2892 4933
2892 4936
2892 4939
2893 3720
2893 3721
2893 3722
2893 4887
2893 4890
2893 4893
2894 3648
2894 3649
2894 3650
2894 4871
2894 4874
2894 4877
2895 3723
2895 3724
2895 3725
2895 4880
2895 4883
2895 4886
2896 3651
2896 3652
2896 3653
2896 4915
2896 4918
2896 4921
2897 3687
2897 3688
2897 3689
2897 4896
2897 4899
2897 4902
2898 3657
2898 3658
2898 3659
2898 4905
2898 4908
2898 4911
2899 3693
2899 3694
2899 3695
2899 4862
2899 4865
2899 4868
2900 3702
2900 3703
2900 3704
2900 4924
2900 4927
2900 4930
2901 3696
2901 3697
2901 3698
2901 4933
2901 4936
2901 4939
2902 3705
2902 3706
2902 3707
2902 4887
2902 4890
2902 4893
2903 3660
2903 3661
2903 3662
2903 4871
2903 4874
2903 4877
2904 3699
2904 3700
2904 3701
2904 4880
2904 4883
2904 4886
2905 3654
2905 3655
2905 3656
2905 4915
2905 4918
2905 4921
2906 3690
2906 3691
2906 3692
2906 4896
2906 4899
2906 4902
2907 3669
2907 3670
2907 3671
2907 4905
2907 4908
2907 4911
2908 3678
2908 3679
2908 3680
2908 4862
2908 4865
2908 4868
2909 3714
2909 3715
2909 3716
2909 4924
2909 4927
2909 4930
2910 3672
2910 3673
2910 3674
2910 4933
2910 4936
2910 4939
2911 3708
2911 3709
2911 3710
2911 4887
2911 4890
2911 4893
2912 3663
2912 3664
2912 3665
2912 4871
2912 4874
2912 4877
2913 3711
2913 3712
2913 3713
2913 4880
2913 4883
2913 4886
2914 3666
2914 3667
2914 3668
2914 4915
2914 4918
2914 4921
2915 3675
2915 3676
2915 3677
2915 4896
2915 4899
2915 4902
2916 4779
2916 4780
2916 4781
2916 5103
2916 5112
2916 5121
2917 4815
2917 4816
2917 4817
2917 5132
2917 5141
2917 5150
2918 4851
2918 4852
2918 4853
2918 5158
2918 5167
2918 5176
2919 4818
2919 4819
2919 4820
2919 5103
2919 5112
2919 5121
2920 4854
2920 4855
2920 4856
2920 5132
2920 5141
2920 5150
2921 4782
2921 4783
2921 4784
2921 5158
2921 5167
2921 5176
2922 4857
2922 4858
2922 4859
2922 5103
2922 5112
2922 5121
2923 4785
2923 4786
2923 4787
2923 5132
2923 5141
2923 5150
2924 4821
2924 4822
2924 4823
2924 5158
2924 5167
2924 5176
2925 4791
2925 4792
2925 4793
2925 5107
2925 5116
2925 5125
2926 4827
2926 4828
2926 4829
2926 5133
2926 5142
2926 5151
2927 4836
2927 4837
2927 4838
2927 5162
2927 5171
2927 5180
2928 4830
2928 4831
2928 4832
2928 5107
2928 5116
2928 5125
2929 4839
2929 4840
2929 4841
2929 5133
2929 5142
2929 5151
2930 4794
2930 4795
2930 4796
2930 5162
2930 5171
2930 5180
2931 4833
2931 4834
2931 4835
2931 5107
2931 5116
2931 5125
2932 4788
2932 4789
2932 4790
2932 5133
2932 5142
2932 5151
2933 4824
2933 4825
2933 4826
2933 5162
2933 5171
2933 5180
2934 4803
2934 4804
2934 4805
2934 5111
2934 5120
2934 5129
2935 4812
2935 4813
2935 4814
2935 5137
2935 5146
2935 5155
2936 4848
2936 4849
2936 4850
2936 5163
2936 5172
2936 5181
2937 4806
2937 4807
2937 4808
2937 5111
2937 5120
2937 5129
2938 4842
2938 4843
2938 4844
2938 5137
2938 5146
2938 5155
2939 4797
2939 4798
2939 4799
2939 5163
2939 5172
2939 5181
2940 4845
2940 4846
2940 4847
2940 5111
2940 5120
2940 5129
2941 4800
2941 4801
2941 4802
2941 5137
2941 5146
2941 5155
2942 4809
2942 4810
2942 4811
2942 5163
2942 5172
2942 5181
2943 4779
2943 4780
2943 4781
2943 5161
2943 5170
2943 5179
2944 4815
2944 4816
2944 4817
2944 5106
2944 5115
2944 5124
2945 4851
2945 4852
2945 4853
2945 5135
2945 5144
2945 5153
2946 4818
2946 4819
2946 4820
2946 5161
2946 5170
2946 5179
2947 4854
2947 4855
2947 4856
2947 5106
2947 5115
2947 5124
2948 4782
2948 4783
2948 4784
2948 5135
2948 5144
2948 5153
2949 4857
2949 4858
2949 4859
2949 5161
2949 5170
2949 5179
2950 4785
2950 4786
2950 4787
2950 5106
2950 5115
2950 5124
2951 4821
2951 4822
2951 4823
2951 5135
2951 5144
2951 5153
2952 4791
2952 4792
2952 4793
2952 5165
2952 5174
2952 5183
2953 4827
2953 4828
2953 4829
2953 5110
2953 5119
2953 5128
2954 4836
2954 4837
2954 4838
2954 5136
2954 5145
2954 5154
2955 4830
2955 4831
2955 4832
2955 5165
2955 5174
2955 5183
2956 4839
2956 4840
2956 4841
2956 5110
2956 5119
2956 5128
2957 4794
2957 4795
2957 4796
2957 5136
2957 5145
2957 5154
2958 4833
2958 4834
2958 4835
2958 5165
2958 5174
2958 5183
2959 4788
2959 4789
2959 4790
2959 5110
2959 5119
2959 5128
2960 4824
2960 4825
2960 4826
2960 5136
2960 5145
2960 5154
2961 4803
2961 4804
2961 4805
2961 5157
2961 5166
2961 5175
2962 4812
2962 4813
2962 4814
2962 5105
2962 5114
2962 5123
2963 4848
2963 4849
2963 4850
2963 5131
2963 5140
2963 5149
2964 4806
2964 4807
2964 4808
2964 5157
2964 5166
2964 5175
2965 4842
2965 4843
2965 4844
2965 5105
2965 5114
2965 5123
2966 4797
2966 4798
2966 4799
2966 5131
2966 5140
2966 5149
2967 4845
2967 4846
2967 4847
2967 5157
2967 5166
2967 5175
2968 4800
2968 4801
2968 4802
2968 5105
2968 5114
2968 5123
2969 4809
2969 4810
2969 4811
2969 5131
2969 5140
2969 5149
2970 4779
2970 4780
2970 4781
2970 5138
2970 5147
2970 5156
2971 4815
2971 4816
2971 4817
2971 5164
2971 5173
2971 5182
2972 4851
2972 4852
2972 4853
2972 5109
2972 5118
2972 5127
2973 4818
2973 4819
2973 4820
2973 5138
2973 5147
2973 5156
2974 4854
2974 4855
2974 4856
2974 5164
2974 5173
2974 5182
2975 4782
2975 4783
2975 4784
2975 5109
2975 5118
2975 5127
2976 4857
2976 4858
2976 4859
2976 5138
2976 5147
2976 5156
2977 4785
2977 4786
2977 4787
2977 5164
2977 5173
2977 5182
2978 4821
2978 4822
2978 4823
2978 5109
2978 5118
2978 5127
2979 4791
2979 4792
2979 4793
2979 5130
2979 5139
2979 5148
2980 4827
2980 4828
2980 4829
2980 5159
2980 5168
2980 5177
2981 4836
2981 4837
2981 4838
2981 5104
2981 5113
2981 5122
2982 4830
2982 4831
2982 4832
2982 5130
2982 5139
2982 5148
2983 4839
2983 4840
2983 4841
2983 5159
2983 5168
2983 5177
2984 4794
2984 4795
2984 4796
2984 5104
2984 5113
2984 5122
2985 4833
2985 4834
2985 4835
2985 5130
2985 5139
2985 5148
2986 4788
2986 4789
2986 4790
2986 5159
2986 5168
2986 5177
2987 4824
2987 4825
2987 4826
2987 5104
2987 5113
2987 5122
2988 4803
2988 4804
2988 4805
2988 5134
2988 5143
2988 5152
2989 4812
2989 4813
2989 4814
2989 5160
2989 5169
2989 5178
2990 4848
2990 4849
2990 4850
2990 5108
2990 5117
2990 5126
2991 4806
2991 4807
2991 4808
2991 5134
2991 5143
2991 5152
2992 4842
2992 4843
2992 4844
2992 5160
2992 5169
2992 5178
2993 4797
2993 4798
2993 4799
2993 5108
2993 5117
2993 5126
2994 4845
2994 4846
2994 4847
2994 5134
2994 5143
2994 5152
2995 4800
2995 4801
2995 4802
2995 5160
2995 5169
2995 5178
2996 4809
2996 4810
2996 4811
2996 5108
2996 5117
2996 5126
2997 4860
2997 4861
2997 4862
2997 5184
2997 5193
2997 5202
2998 4896
2998 4897
2998 4898
2998 5213
2998 5222
2998 5231
2999 4932
2999 4933
2999 4934
2999 5239
2999 5248
2999 5257
3000 4899
3000 4900
3000 4901
3000 5184
3000 5193
3000 5202
3001 4935
3001 4936
3001 4937
3001 5213
3001 5222
3001 5231
3002 4863
3002 4864
3002 4865
3002 5239
3002 5248
3002 5257
3003 4938
3003 4939
3003 4940
3003 5184
3003 5193
3003 5202
3004 4866
3004 4867
3004 4868
3004 5213
3004 5222
3004 5231
3005 4902
3005 4903
3005 4904
3005 5239
3005 5248
3005 5257
3006 4872
3006 4873
3006 4874
3006 5188
3006 5197
3006 5206
3007 4908
3007 4909
3007 4910
3007 5214
3007 5223
3007 5232
3008 4917
3008 4918
3008 4919
3008 5243
3008 5252
3008 5261
3009 4911
3009 4912
3009 4913
3009 5188
3009 5197
3009 5206
3010 4920
3010 4921
3010 4922
3010 5214
3010 5223
3010 5232
3011 4875
3011 4876
3011 4877
3011 5243
3011 5252
3011 5261
3012 4914
3012 4915
3012 4916
3012 5188
3012 5197
3012 5206
3013 4869
3013 4870
3013 4871
3013 5214
3013 5223
3013 5232
3014 4905
3014 4906
3014 4907
3014 5243
3014 5252
3014 5261
3015 4884
3015 4885
3015 4886
3015 5192
3015 5201
3015 5210
3016 4893
3016 4894
3016 4895
3016 5218
3016 5227
3016 5236
3017 4929
3017 4930
3017 4931
3017 5244
3017 5253
3017 5262
3018 4887
3018 4888
3018 4889
3018 5192
3018 5201
3018 5210
3019 4923
3019 4924
3019 4925
3019 5218
3019 5227
3019 5236
3020 4878
3020 4879
3020 4880
3020 5244
3020 5253
3020 5262
3021 4926
3021 4927
3021 4928
3021 5192
3021 5201
3021 5210
3022 4881
3022 4882
3022 4883
3022 5218
3022 5227
3022 5236
3023 4890
3023 4891
3023 4892
3023 5244
3023 5253
3023 5262
3024 4860
3024 4861
3024 4862
3024 5242
3024 5251
3024 5260
3025 4896
3025 4897
3025 4898
3025 5187
3025 5196
3025 5205
3026 4932
3026 4933
3026 4934
3026 5216
3026 5225
3026 5234
3027 4899
3027 4900
3027 4901
3027 5242
3027 5251
3027 5260
3028 4935
3028 4936
3028 4937
3028 5187
3028 5196
3028 5205
3029 4863
3029 4864
3029 4865
3029 5216
3029 5225
3029 5234
3030 4938
3030 4939
3030 4940
3030 5242
3030 5251
3030 5260
3031 4866
3031 4867
3031 4868
3031 5187
3031 5196
3031 5205
3032 4902
3032 4903
3032 4904
3032 5216
3032 5225
3032 5234
3033 4872
3033 4873
3033 4874
3033 5246
3033 5255
3033 5264
3034 4908
3034 4909
3034 4910
3034 5191
3034 5200
3034 5209
3035 4917
3035 4918
3035 4919
3035 5217
3035 5226
3035 5235
3036 4911
3036 4912
3036 4913
3036 5246
3036 5255
3036 5264
3037 4920
3037 4921
3037 4922
3037 5191
3037 5200
3037 5209
3038 4875
3038 4876
3038 4877
3038 5217
3038 5226
3038 5235
3039 4914
3039 4915
3039 4916
3039 5246
3039 5255
3039 5264
3040 4869
3040 4870
3040 4871
3040 5191
3040 5200
3040 5209
3041 4905
3041 4906
3041 4907
3041 5217
3041 5226
3041 5235
3042 4884
3042 4885
3042 4886
3042 5238
3042 5247
3042 5256
3043 4893
3043 4894
3043 4895
3043 5186
3043 5195
3043 5204
3044 4929
3044 4930
3044 4931
3044 5212
3044 5221
3044 5230
3045 4887
3045 4888
3045 4889
3045 5238
3045 5247
3045 5256
3046 4923
3046 4924
3046 4925
3046 5186
3046 5195
3046 5204
3047 4878
3047 4879
3047 4880
3047 5212
3047 5221
3047 5230
3048 4926
3048 4927
3048 4928
3048 5238
3048 5247
3048 5256
3049 4881
3049 4882
3049 4883
3049 5186
3049 5195
3049 5204
3050 4890
3050 4891
3050 4892
3050 5212
3050 5221
3050 5230
3051 4860
3051 4861
3051 4862
3051 5219
3051 5228
3051 5237
3052 4896
3052 4897
3052 4898
3052 5245
3052 5254
3052 5263
3053 4932
3053 4933
3053 4934
3053 5190
3053 5199
3053 5208
3054 4899
3054 4900
3054 4901
3054 5219
3054 5228
3054 5237
3055 4935
3055 4936
3055 4937
3055 5245
3055 5254
3055 5263
3056 4863
3056 4864
3056 4865
3056 5190
3056 5199
3056 5208
3057 4938
3057 4939
3057 4940
3057 5219
3057 5228
3057 5237
3058 4866
3058 4867
3058 4868
3058 5245
3058 5254
3058 5263
3059 4902
3059 4903
3059 4904
3059 5190
3059 5199
3059 5208
3060 4872
3060 4873
3060 4874
3060 5211
3060 5220
3060 5229
3061 4908
3061 4909
3061 4910
3061 5240
3061 5249
3061 5258
3062 4917
3062 4918
3062 4919
3062 5185
3062 5194
3062 5203
3063 4911
3063 4912
3063 4913
3063 5211
3063 5220
3063 5229
3064 4920
3064 4921
3064 4922
3064 5240
3064 5249
3064 5258
3065 4875
3065 4876
3065 4877
3065 5185
3065 5194
3065 5203
3066 4914
3066 4915
3066 4916
3066 5211
3066 5220
3066 5229
3067 4869
3067 4870
3067 4871
3067 5240
3067 5249
3067 5258
3068 4905
3068 4906
3068 4907
3068 5185
3068 5194
3068 5203
3069 4884
3069 4885
3069 4886
3069 5215
3069 5224
3069 5233
3070 4893
3070 4894
3070 4895
3070 5241
3070 5250
3070 5259
3071 4929
3071 4930
3071 4931
3071 5189
3071 5198
3071 5207
3072 4887
3072 4888
3072 4889
3072 5215
3072 5224
3072 5233
3073 4923
3073 4924
3073 4925
3073 5241
3073 5250
3073 5259
3074 4878
3074 4879
3074 4880
3074 5189
3074 5198
3074 5207
3075 4926
3075 4927
3075 4928
3075 5215
3075 5224
3075 5233
3076 4881
3076 4882
3076 4883
3076 5241
3076 5250
3076 5259
3077 4890
3077 4891
3077 4892
3077 5189
3077 5198
3077 5207
3078 4941
3078 4942
3078 4943
3078 5265
3078 5274
3078 5283
3079 4977
3079 4978
3079 4979
3079 5294
3079 5303
3079 5312
3080 5013
3080 5014
3080 5015
3080 5320
3080 5329
3080 5338
3081 4980
3081 4981
3081 4982
3081 5265
3081 5274
3081 5283
3082 5016
3082 5017
3082 5018
3082 5294
3082 5303
3082 5312
3083 4944
3083 4945
3083 4946
3083 5320
3083 5329
3083 5338
3084 5019
3084 5020
3084 5021
3084 5265
3084 5274
3084 5283
3085 4947
3085 4948
3085 4949
3085 5294
3085 5303
3085 5312
3086 4983
3086 4984
3086 4985
3086 5320
3086 5329
3086 5338
3087 4953
3087 4954
3087 4955
3087 5269
3087 5278
3087 5287
3088 4989
3088 4990
3088 4991
3088 5295
3088 5304
3088 5313
3089 4998
3089 4999
3089 5000
3089 5324
3089 5333
3089 5342
3090 4992
3090 4993
3090 4994
3090 5269
3090 5278
3090 5287
3091 5001
3091 5002
3091 5003
3091 5295
3091 5304
3091 5313
3092 4956
3092 4957
3092 4958
3092 5324
3092 5333
3092 5342
3093 4995
3093 4996
3093 4997
3093 5269
3093 5278
3093 5287
3094 4950
3094 4951
3094 4952
3094 5295
3094 5304
3094 5313
3095 4986
3095 4987
3095 4988
3095 5324
3095 5333
3095 5342
3096 4965
3096 4966
3096 4967
3096 5273
3096 5282
3096 5291
3097 4974
3097 4975
3097 4976
3097 5299
3097 5308
3097 5317
3098 5010
3098 5011
3098 5012
3098 5325
3098 5334
3098 5343
3099 4968
3099 4969
3099 4970
3099 5273
3099 5282
3099 5291
3100 5004
3100 5005
3100 5006
3100 5299
3100 5308
3100 5317
3101 4959
3101 4960
3101 4961
3101 5325
3101 5334
3101 5343
3102 5007
3102 5008
3102 5009
3102 5273
3102 5282
3102 5291
3103 4962
3103 4963
3103 4964
3103 5299
3103 5308
3103 5317
3104 4971
3104 4972
3104 4973
3104 5325
3104 5334
3104 5343
3105 4941
3105 4942
3105 4943
3105 5323
3105 5332
3105 5341
3106 4977
3106 4978
3106 4979
3106 5268
3106 5277
3106 5286
3107 5013
3107 5014
3107 5015
3107 5297
3107 5306
3107 5315
3108 4980
3108 4981
3108 4982
3108 5323
3108 5332
3108 5341
3109 5016
3109 5017
3109 5018
3109 5268
3109 5277
3109 5286
3110 4944
3110 4945
3110 4946
3110 5297
3110 5306
3110 5315
3111 5019
3111 5020
3111 5021
3111 5323
3111 5332
3111 5341
3112 4947
3112 4948
3112 4949
3112 5268
3112 5277
3112 5286
3113 4983
3113 4984
3113 4985
3113 5297
3113 5306
3113 5315
3114 4953
3114 4954
3114 4955
3114 5327
3114 5336
3114 5345
3115 4989
3115 4990
3115 4991
3115 5272
3115 5281
3115 5290
3116 4998
3116 4999
3116 5000
3116 5298
3116 5307
3116 5316
3117 4992
3117 4993
3117 4994
3117 5327
3117 5336
3117 5345
3118 5001
3118 5002
3118 5003
3118 5272
3118 5281
3118 5290
3119 4956
3119 4957
3119 4958
3119 5298
3119 5307
3119 5316
3120 4995
3120 4996
3120 4997
3120 5327
3120 5336
3120 5345
3121 4950
3121 4951
3121 4952
3121 5272
3121 5281
3121 5290
3122 4986
3122 4987
3122 4988
3122 5298
3122 5307
3122 5316
3123 4965
3123 4966
3123 4967
3123 5319
3123 5328
3123 5337
3124 4974
3124 4975
3124 4976
3124 5267
3124 5276
3124 5285
3125 5010
3125 5011
3125 5012
3125 5293
3125 5302
3125 5311
3126 4968
3126 4969
3126 4970
3126 5319
3126 5328
3126 5337
3127 5004
3127 5005
3127 5006
3127 5267
3127 5276
3127 5285
3128 4959
3128 4960
3128 4961
3128 5293
3128 5302
3128 5311
3129 5007
3129 5008
3129 5009
3129 5319
3129 5328
3129 5337
3130 4962
3130 4963
3130 4964
3130 5267
3130 5276
3130 5285
3131 4971
3131 4972
3131 4973
3131 5293
3131 5302
3131 5311
3132 4941
3132 4942
3132 4943
3132 5300
3132 5309
3132 5318
3133 4977
3133 4978
3133 4979
3133 5326
3133 5335
3133 5344
3134 5013
3134 5014
3134 5015
3134 5271
3134 5280
3134 5289
3135 4980
3135 4981
3135 4982
3135 5300
3135 5309
3135 5318
3136 5016
3136 5017
3136 5018
3136 5326
3136 5335
3136 5344
3137 4944
3137 4945
3137 4946
3137 5271
3137 5280
3137 5289
3138 5019
3138 5020
3138 5021
3138 5300
3138 5309
3138 5318
3139 4947
3139 4948
3139 4949
3139 5326
3139 5335
3139 5344
3140 4983
3140 4984
3140 4985
3140 5271
3140 5280
3140 5289
3141 4953
3141 4954
3141 4955
3141 5292
3141 5301
3141 5310
3142 4989
3142 4990
3142 4991
3142 5321
3142 5330
3142 5339
3143 4998
3143 4999
3143 5000
3143 5266
3143 5275
3143 5284
3144 4992
3144 4993
3144 4994
3144 5292
3144 5301
3144 5310
3145 5001
3145 5002
3145 5003
3145 5321
3145 5330
3145 5339
3146 4956
3146 4957
3146 4958
3146 5266
3146 5275
3146 5284
3147 4995
3147 4996
3147 4997
3147 5292
3147 5301
3147 5310
3148 4950
3148 4951
3148 4952
3148 5321
3148 5330
3148 5339
3149 4986
3149 4987
3149 4988
3149 5266
3149 5275
3149 5284
3150 4965
3150 4966
3150 4967
3150 5296
3150 5305
3150 5314
3151 4974
3151 4975
3151 4976
3151 5322
3151 5331
3151 5340
3152 5010
3152 5011
3152 5012
3152 5270
3152 5279
3152 5288
3153 4968
3153 4969
3153 4970
3153 5296
3153 5305
3153 5314
3154 5004
3154 5005
3154 5006
3154 5322
3154 5331
3154 5340
3155 4959
3155 4960
3155 4961
3155 5270
3155 5279
3155 5288
3156 5007
3156 5008
3156 5009
3156 5296
3156 5305
3156 5314
3157 4962
3157 4963
3157 4964
3157 5322
3157 5331
3157 5340
3158 4971
3158 4972
3158 4973
3158 5270
3158 5279
3158 5288
3159 5022
3159 5023
3159 5024
3159 5346
3159 5355
3159 5364
3160 5058
3160 5059
3160 5060
3160 5375
3160 5384
3160 5393
3161 5094
3161 5095
3161 5096
3161 5401
3161 5410
3161 5419
3162 5061
3162 5062
3162 5063
3162 5346
3162 5355
3162 5364
3163 5097
3163 5098
3163 5099
3163 5375
3163 5384
3163 5393
3164 5025
3164 5026
3164 5027
3164 5401
3164 5410
3164 5419
3165 5100
3165 5101
3165 5102
3165 5346
3165 5355
3165 5364
3166 5028
3166 5029
3166 5030
3166 5375
3166 5384
3166 5393
3167 5064
3167 5065
3167 5066
3167 5401
3167 5410
3167 5419
3168 5034
3168 5035
3168 5036
3168 5350
3168 5359
3168 5368
3169 5070
3169 5071
3169 5072
3169 5376
3169 5385
3169 5394
3170 5079
3170 5080
3170 5081
3170 5405
3170 5414
3170 5423
3171 5073
3171 5074
3171 5075
3171 5350
3171 5359
3171 5368
3172 5082
3172 5083
3172 5084
3172 5376
3172 5385
3172 5394
3173 5037
3173 5038
3173 5039
3173 5405
3173 5414
3173 5423
3174 5076
3174 5077
3174 5078
3174 5350
3174 5359
3174 5368
3175 5031
3175 5032
3175 5033
3175 5376
3175 5385
3175 5394
3176 5067
3176 5068
3176 5069
3176 5405
3176 5414
3176 5423
3177 5046
3177 5047
3177 5048
3177 5354
3177 5363
3177 5372
3178 5055
3178 5056
3178 5057
3178 5380
3178 5389
3178 5398
3179 5091
3179 5092
3179 5093
3179 5406
3179 5415
3179 5424
3180 5049
3180 5050
3180 5051
3180 5354
3180 5363
3180 5372
3181 5085
3181 5086
3181 5087
3181 5380
3181 5389
3181 5398
3182 5040
3182 5041
3182 5042
3182 5406
3182 5415
3182 5424
3183 5088
3183 5089
3183 5090
3183 5354
3183 5363
3183 5372
3184 5043
3184 5044
3184 5045
3184 5380
3184 5389
3184 5398
3185 5052
3185 5053
3185 5054
3185 5406
3185 5415
3185 5424
3186 5022
3186 5023
3186 5024
3186 5404
3186 5413
3186 5422
3187 5058
3187 5059
3187 5060
3187 5349
3187 5358
3187 5367
3188 5094
3188 5095
3188 5096
3188 5378
3188 5387
3188 5396
3189 5061
3189 5062
3189 5063
3189 5404
3189 5413
3189 5422
3190 5097
3190 5098
3190 5099
3190 5349
3190 5358
3190 5367
3191 5025
3191 5026
3191 5027
3191 5378
3191 5387
3191 5396
3192 5100
3192 5101
3192 5102
3192 5404
3192 5413
3192 5422
3193 5028
3193 5029
3193 5030
3193 5349
3193 5358
3193 5367
3194 5064
3194 5065
3194 5066
3194 5378
3194 5387
3194 5396
3195 5034
3195 5035
3195 5036
3195 5408
3195 5417
3195 5426
3196 5070
3196 5071
3196 5072
3196 5353
3196 5362
3196 5371
3197 5079
3197 5080
3197 5081
3197 5379
3197 5388
3197 5397
3198 5073
3198 5074
3198 5075
3198 5408
3198 5417
3198 5426
3199 5082
3199 5083
3199 5084
3199 5353
3199 5362
3199 5371
3200 5037
3200 5038
3200 5039
3200 5379
3200 5388
3200 5397
3201 5076
3201 5077
3201 5078
3201 5408
3201 5417
3201 5426
3202 5031
3202 5032
3202 5033
3202 5353
3202 5362
3202 5371
3203 5067
3203 5068
3203 5069
3203 5379
3203 5388
3203 5397
3204 5046
3204 5047
3204 5048
3204 5400
3204 5409
3204 5418
3205 5055
3205 5056
3205 5057
3205 5348
3205 5357
3205 5366
3206 5091
3206 5092
3206 5093
3206 5374
3206 5383
3206 5392
3207 5049
3207 5050
3207 5051
3207 5400
3207 5409
3207 5418
3208 5085
3208 5086
3208 5087
3208 5348
3208 5357
3208 5366
3209 5040
3209 5041
3209 5042
3209 5374
3209 5383
3209 5392
3210 5088
3210 5089
3210 5090
3210 5400
3210 5409
3210 5418
3211 5043
3211 5044
3211 5045
3211 5348
3211 5357
3211 5366
3212 5052
3212 5053
3212 5054
3212 5374
3212 5383
3212 5392
3213 5022
3213 5023
3213 5024
3213 5381
3213 5390
3213 5399
3214 5058
3214 5059
3214 5060
3214 5407
3214 5416
3214 5425
3215 5094
3215 5095
3215 5096
3215 5352
3215 5361
3215 5370
3216 5061
3216 5062
3216 5063
3216 5381
3216 5390
3216 5399
3217 5097
3217 5098
3217 5099
3217 5407
3217 5416
3217 5425
3218 5025
3218 5026
3218 5027
3218 5352
3218 5361
3218 5370
3219 5100
3219 5101
3219 5102
3219 5381
3219 5390
3219 5399
3220 5028
3220 5029
3220 5030
3220 5407
3220 5416
3220 5425
3221 5064
3221 5065
3221 5066
3221 5352
3221 5361
3221 5370
3222 5034
3222 5035
3222 5036
3222 5373
3222 5382
3222 5391
3223 5070
3223 5071
3223 5072
3223 5402
3223 5411
3223 5420
3224 5079
3224 5080
3224 5081
3224 5347
3224 5356
3224 5365
3225 5073
3225 5074
3225 5075
3225 5373
3225 5382
3225 5391
3226 5082
3226 5083
3226 5084
3226 5402
3226 5411
3226 5420
3227 5037
3227 5038
3227 5039
3227 5347
3227 5356
3227 5365
3228 5076
3228 5077
3228 5078
3228 5373
3228 5382
3228 5391
3229 5031
3229 5032
3229 5033
3229 5402
3229 5411
3229 5420
3230 5067
3230 5068
3230 5069
3230 5347
3230 5356
3230 5365
3231 5046
3231 5047
3231 5048
3231 5377
3231 5386
3231 5395
3232 5055
3232 5056
3232 5057
3232 5403
3232 5412
3232 5421
3233 5091
3233 5092
3233 5093
3233 5351
3233 5360
3233 5369
3234 5049
3234 5050
3234 5051
3234 5377
3234 5386
3234 5395
3235 5085
3235 5086
3235 5087
3235 5403
3235 5412
3235 5421
3236 5040
3236 5041
3236 5042
3236 5351
3236 5360
3236 5369
3237 5088
3237 5089
3237 5090
3237 5377
3237 5386
3237 5395
3238 5043
3238 5044
3238 5045
3238 5403
3238 5412
3238 5421
3239 5052
3239 5053
3239 5054
3239 5351
3239 5360
3239 5369
3240 4374
3240 4375
3240 4376
3240 5427
3240 5436
3240 5445
3241 4410
3241 4411
3241 4412
3241 5456
3241 5465
3241 5474
3242 4446
3242 4447
3242 4448
3242 5482
3242 5491
3242 5500
3243 4413
3243 4414
3243 4415
3243 5427
3243 5436
3243 5445
3244 4449
3244 4450
3244 4451
3244 5456
3244 5465
3244 5474
3245 4377
3245 4378
3245 4379
3245 5482
3245 5491
3245 5500
3246 4452
3246 4453
3246 4454
3246 5427
3246 5436
3246 5445
3247 4380
3247 4381
3247 4382
3247 5456
3247 5465
3247 5474
3248 4416
3248 4417
3248 4418
3248 5482
3248 5491
3248 5500
3249 4386
3249 4387
3249 4388
3249 5431
3249 5440
3249 5449
3250 4422
3250 4423
3250 4424
3250 5457
3250 5466
3250 5475
3251 4431
3251 4432
3251 4433
3251 5486
3251 5495
3251 5504
3252 4425
3252 4426
3252 4427
3252 5431
3252 5440
3252 5449
3253 4434
3253 4435
3253 4436
3253 5457
3253 5466
3253 5475
3254 4389
3254 4390
3254 4391
3254 5486
3254 5495
3254 5504
3255 4428
3255 4429
3255 4430
3255 5431
3255 5440
3255 5449
3256 4383
3256 4384
3256 4385
3256 5457
3256 5466
3256 5475
3257 4419
3257 4420
3257 4421
3257 5486
3257 5495
3257 5504
3258 4398
3258 4399
3258 4400
3258 5435
3258 5444
3258 5453
3259 4407
3259 4408
3259 4409
3259 5461
3259 5470
3259 5479
3260 4443
3260 4444
3260 4445
3260 5487
3260 5496
3260 5505
3261 4401
3261 4402
3261 4403
3261 5435
3261 5444
3261 5453
3262 4437
3262 4438
3262 4439
3262 5461
3262 5470
3262 5479
3263 4392
3263 4393
3263 4394
3263 5487
3263 5496
3263 5505
3264 4440
3264 4441
3264 4442
3264 5435
3264 5444
3264 5453
3265 4395
3265 4396
3265 4397
3265 5461
3265 5470
3265 5479
3266 4404
3266 4405
3266 4406
3266 5487
3266 5496
3266 5505
3267 4374
3267 4375
3267 4376
3267 5485
3267 5494
3267 5503
3268 4410
3268 4411
3268 4412
3268 5430
3268 5439
3268 5448
3269 4446
3269 4447
3269 4448
3269 5459
3269 5468
3269 5477
3270 4413
3270 4414
3270 4415
3270 5485
3270 5494
3270 5503
3271 4449
3271 4450
3271 4451
3271 5430
3271 5439
3271 5448
3272 4377
3272 4378
3272 4379
3272 5459
3272 5468
3272 5477
3273 4452
3273 4453
3273 4454
3273 5485
3273 5494
3273 5503
3274 4380
3274 4381
3274 4382
3274 5430
3274 5439
3274 5448
3275 4416
3275 4417
3275 4418
3275 5459
3275 5468
3275 5477
3276 4386
3276 4387
3276 4388
3276 5489
3276 5498
3276 5507
3277 4422
3277 4423
3277 4424
3277 5434
3277 5443
3277 5452
3278 4431
3278 4432
3278 4433
3278 5460
3278 5469
3278 5478
3279 4425
3279 4426
3279 4427
3279 5489
3279 5498
3279 5507
3280 4434
3280 4435
3280 4436
3280 5434
3280 5443
3280 5452
3281 4389
3281 4390
3281 4391
3281 5460
3281 5469
3281 5478
3282 4428
3282 4429
3282 4430
3282 5489
3282 5498
3282 5507
3283 4383
3283 4384
3283 4385
3283 5434
3283 5443
3283 5452
3284 4419
3284 4420
3284 4421
3284 5460
3284 5469
3284 5478
3285 4398
3285 4399
3285 4400
3285 5481
3285 5490
3285 5499
3286 4407
3286 4408
3286 4409
3286 5429
3286 5438
3286 5447
3287 4443
3287 4444
3287 4445
3287 5455
3287 5464
3287 5473
3288 4401
3288 4402
3288 4403
3288 5481
3288 5490
3288 5499
3289 4437
3289 4438
3289 4439
3289 5429
3289 5438
3289 5447
3290 4392
3290 4393
3290 4394
3290 5455
3290 5464
3290 5473
3291 4440
3291 4441
3291 4442
3291 5481
3291 5490
3291 5499
3292 4395
3292 4396
3292 4397
3292 5429
3292 5438
3292 5447
3293 4404
3293 4405
3293 4406
3293 5455
3293 5464
3293 5473
3294 4374
3294 4375
3294 4376
3294 5462
3294 5471
3294 5480
3295 4410
3295 4411
3295 4412
3295 5488
3295 5497
3295 5506
3296 4446
3296 4447
3296 4448
3296 5433
3296 5442
3296 5451
3297 4413
3297 4414
3297 4415
3297 5462
3297 5471
3297 5480
3298 4449
3298 4450
3298 4451
3298 5488
3298 5497
3298 5506
3299 4377
3299 4378
3299 4379
3299 5433
3299 5442
3299 5451
3300 4452
3300 4453
3300 4454
3300 5462
3300 5471
3300 5480
3301 4380
3301 4381
3301 4382
3301 5488
3301 5497
3301 5506
3302 4416
3302 4417
3302 4418
3302 5433
3302 5442
3302 5451
3303 4386
3303 4387
3303 4388
3303 5454
3303 5463
3303 5472
3304 4422
3304 4423
3304 4424
3304 5483
3304 5492
3304 5501
3305 4431
3305 4432
3305 4433
3305 5428
3305 5437
3305 5446
3306 4425
3306 4426
3306 4427
3306 5454
3306 5463
3306 5472
3307 4434
3307 4435
3307 4436
3307 5483
3307 5492
3307 5501
3308 4389
3308 4390
3308 4391
3308 5428
3308 5437
3308 5446
3309 4428
3309 4429
3309 4430
3309 5454
3309 5463
3309 5472
3310 4383
3310 4384
3310 4385
3310 5483
3310 5492
3310 5501
3311 4419
3311 4420
3311 4421
3311 5428
3311 5437
3311 5446
3312 4398
3312 4399
3312 4400
3312 5458
3312 5467
3312 5476
3313 4407
3313 4408
3313 4409
3313 5484
3313 5493
3313 5502
3314 4443
3314 4444
3314 4445
3314 5432
3314 5441
3314 5450
3315 4401
3315 4402
3315 4403
3315 5458
3315 5467
3315 5476
3316 4437
3316 4438
3316 4439
3316 5484
3316 5493
3316 5502
3317 4392
3317 4393
3317 4394
3317 5432
3317 5441
3317 5450
3318 4440
3318 4441
3318 4442
3318 5458
3318 5467
3318 5476
3319 4395
3319 4396
3319 4397
3319 5484
3319 5493
3319 5502
3320 4404
3320 4405
3320 4406
3320 5432
3320 5441
3320 5450
3321 4455
3321 4456
3321 4457
3321 5508
3321 5517
3321 5526
3322 4491
3322 4492
3322 4493
3322 5537
3322 5546
3322 5555
3323 4527
3323 4528
3323 4529
3323 5563
3323 5572
3323 5581
3324 4494
3324 4495
3324 4496
3324 5508
3324 5517
3324 5526
3325 4530
3325 4531
3325 4532
3325 5537
3325 5546
3325 5555
3326 4458
3326 4459
3326 4460
3326 5563
3326 5572
3326 5581
3327 4533
3327 4534
3327 4535
3327 5508
3327 5517
3327 5526
3328 4461
3328 4462
3328 4463
3328 5537
3328 5546
3328 5555
3329 4497
3329 4498
3329 4499
3329 5563
3329 5572
3329 5581
3330 4467
3330 4468
3330 4469
3330 5512
3330 5521
3330 5530
3331 4503
3331 4504
3331 4505
3331 5538
3331 5547
3331 5556
3332 4512
3332 4513
3332 4514
3332 5567
3332 5576
3332 5585
3333 4506
3333 4507
3333 4508
3333 5512
3333 5521
3333 5530
3334 4515
3334 4516
3334 4517
3334 5538
3334 5547
3334 5556
3335 4470
3335 4471
3335 4472
3335 5567
3335 5576
3335 5585
3336 4509
3336 4510
3336 4511
3336 5512
3336 5521
3336 5530
3337 4464
3337 4465
3337 4466
3337 5538
3337 5547
3337 5556
3338 4500
3338 4501
3338 4502
3338 5567
3338 5576
3338 5585
3339 4479
3339 4480
3339 4481
3339 5516
3339 5525
3339 5534
3340 4488
3340 4489
3340 4490
3340 5542
3340 5551
3340 5560
3341 4524
3341 4525
3341 4526
3341 5568
3341 5577
3341 5586
3342 4482
3342 4483
3342 4484
3342 5516
3342 5525
3342 5534
3343 4518
3343 4519
3343 4520
3343 5542
3343 5551
3343 5560
3344 4473
3344 4474
3344 4475
3344 5568
3344 5577
3344 5586
3345 4521
3345 4522
3345 4523
3345 5516
3345 5525
3345 5534
3346 4476
3346 4477
3346 4478
3346 5542
3346 5551
3346 5560
3347 4485
3347 4486
3347 4487
3347 5568
3347 5577
3347 5586
3348 4455
3348 4456
3348 4457
3348 5566
3348 5575
3348 5584
3349 4491
3349 4492
3349 4493
3349 5511
3349 5520
3349 5529
3350 4527
3350 4528
3350 4529
3350 5540
3350 5549
3350 5558
3351 4494
3351 4495
3351 4496
3351 5566
3351 5575
3351 5584
3352 4530
3352 4531
3352 4532
3352 5511
3352 5520
3352 5529
3353 4458
3353 4459
3353 4460
3353 5540
3353 5549
3353 5558
3354 4533
3354 4534
3354 4535
3354 5566
3354 5575
3354 5584
3355 4461
3355 4462
3355 4463
3355 5511
3355 5520
3355 5529
3356 4497
3356 4498
3356 4499
3356 5540
3356 5549
3356 5558
3357 4467
3357 4468
3357 4469
3357 5570
3357 5579
3357 5588
3358 4503
3358 4504
3358 4505
3358 5515
3358 5524
3358 5533
3359 4512
3359 4513
3359 4514
3359 5541
3359 5550
3359 5559
3360 4506
3360 4507
3360 4508
3360 5570
3360 5579
3360 5588
3361 4515
3361 4516
3361 4517
3361 5515
3361 5524
3361 5533
3362 4470
3362 4471
3362 4472
3362 5541
3362 5550
3362 5559
3363 4509
3363 4510
3363 4511
3363 5570
3363 5579
3363 5588
3364 4464
3364 4465
3364 4466
3364 5515
3364 5524
3364 5533
3365 4500
3365 4501
3365 4502
3365 5541
3365 5550
3365 5559
3366 4479
3366 4480
3366 4481
3366 5562
3366 5571
3366 5580
3367 4488
3367 4489
3367 4490
3367 5510
3367 5519
3367 5528
3368 4524
3368 4525
3368 4526
3368 5536
3368 5545
3368 5554
3369 4482
3369 4483
3369 4484
3369 5562
3369 5571
3369 5580
3370 4518
3370 4519
3370 4520
3370 5510
3370 5519
3370 5528
3371 4473
3371 4474
3371 4475
3371 5536
3371 5545
3371 5554
3372 4521
3372 4522
3372 4523
3372 5562
3372 5571
3372 5580
3373 4476
3373 4477
3373 4478
3373 5510
3373 5519
3373 5528
3374 4485
3374 4486
3374 4487
3374 5536
3374 5545
3374 5554
3375 4455
3375 4456
3375 4457
3375 5543
3375 5552
3375 5561
3376 4491
3376 4492
3376 4493
3376 5569
3376 5578
3376 5587
3377 4527
3377 4528
3377 4529
3377 5514
3377 5523
3377 5532
3378 4494
3378 4495
3378 4496
3378 5543
3378 5552
3378 5561
3379 4530
3379 4531
3379 4532
3379 5569
3379 5578
3379 5587
3380 4458
3380 4459
3380 4460
3380 5514
3380 5523
3380 5532
3381 4533
3381 4534
3381 4535
3381 5543
3381 5552
3381 5561
3382 4461
3382 4462
3382 4463
3382 5569
3382 5578
3382 5587
3383 4497
3383 4498
3383 4499
3383 5514
3383 5523
3383 5532
3384 4467
3384 4468
3384 4469
3384 5535
3384 5544
3384 5553
3385 4503
3385 4504
3385 4505
3385 5564
3385 5573
3385 5582
3386 4512
3386 4513
3386 4514
3386 5509
3386 5518
3386 5527
3387 4506
3387 4507
3387 4508
3387 5535
3387 5544
3387 5553
3388 4515
3388 4516
3388 4517
3388 5564
3388 5573
3388 5582
3389 4470
3389 4471
3389 4472
3389 5509
3389 5518
3389 5527
3390 4509
3390 4510
3390 4511
3390 5535
3390 5544
3390 5553
3391 4464
3391 4465
3391 4466
3391 5564
3391 5573
3391 5582
3392 4500
3392 4501
3392 4502
3392 5509
3392 5518
3392 5527
3393 4479
3393 4480
3393 4481
3393 5539
3393 5548
3393 5557
3394 4488
3394 4489
3394 4490
3394 5565
3394 5574
3394 5583
3395 4524
3395 4525
3395 4526
3395 5513
3395 5522
3395 5531
3396 4482
3396 4483
3396 4484
3396 5539
3396 5548
3396 5557
3397 4518
3397 4519
3397 4520
3397 5565
3397 5574
3397 5583
3398 4473
3398 4474
3398 4475
3398 5513
3398 5522
3398 5531
3399 4521
3399 4522
3399 4523
3399 5539
3399 5548
3399 5557
3400 4476
3400 4477
3400 4478
3400 5565
3400 5574
3400 5583
3401 4485
3401 4486
3401 4487
3401 5513
3401 5522
3401 5531
3402 4536
3402 4537
3402 4538
3402 5589
3402 5598
3402 5607
3403 4572
3403 4573
3403 4574
3403 5618
3403 5627
3403 5636
3404 4608
3404 4609
3404 4610
3404 5644
3404 5653
3404 5662
3405 4575
3405 4576
3405 4577
3405 5589
3405 5598
3405 5607
3406 4611
3406 4612
3406 4613
3406 5618
3406 5627
3406 5636
3407 4539
3407 4540
3407 4541
3407 5644
3407 5653
3407 5662
3408 4614
3408 4615
3408 4616
3408 5589
3408 5598
3408 5607
3409 4542
3409 4543
3409 4544
3409 5618
3409 5627
3409 5636
3410 4578
3410 4579
3410 4580
3410 5644
3410 5653
3410 5662
3411 4548
3411 4549
3411 4550
3411 5593
3411 5602
3411 5611
3412 4584
3412 4585
3412 4586
3412 5619
3412 5628
3412 5637
3413 4593
3413 4594
3413 4595
3413 5648
3413 5657
3413 5666
3414 4587
3414 4588
3414 4589
3414 5593
3414 5602
3414 5611
3415 4596
3415 4597
3415 4598
3415 5619
3415 5628
3415 5637
3416 4551
3416 4552
3416 4553
3416 5648
3416 5657
3416 5666
3417 4590
3417 4591
3417 4592
3417 5593
3417 5602
3417 5611
3418 4545
3418 4546
3418 4547
3418 5619
3418 5628
3418 5637
3419 4581
3419 4582
3419 4583
3419 5648
3419 5657
3419 5666
3420 4560
3420 4561
3420 4562
3420 5597
3420 5606
3420 5615
3421 4569
3421 4570
3421 4571
3421 5623
3421 5632
3421 5641
3422 4605
3422 4606
3422 4607
3422 5649
3422 5658
3422 5667
3423 4563
3423 4564
3423 4565
3423 5597
3423 5606
3423 5615
3424 4599
3424 4600
3424 4601
3424 5623
3424 5632
3424 5641
3425 4554
3425 4555
3425 4556
3425 5649
3425 5658
3425 5667
3426 4602
3426 4603
3426 4604
3426 5597
3426 5606
3426 5615
3427 4557
3427 4558
3427 4559
3427 5623
3427 5632
3427 5641
3428 4566
3428 4567
3428 4568
3428 5649
3428 5658
3428 5667
3429 4536
3429 4537
3429 4538
3429 5647
3429 5656
3429 5665
3430 4572
3430 4573
3430 4574
3430 5592
3430 5601
3430 5610
3431 4608
3431 4609
3431 4610
3431 5621
3431 5630
3431 5639
3432 4575
3432 4576
3432 4577
3432 5647
3432 5656
3432 5665
3433 4611
3433 4612
3433 4613
3433 5592
3433 5601
3433 5610
3434 4539
3434 4540
3434 4541
3434 5621
3434 5630
3434 5639
3435 4614
3435 4615
3435 4616
3435 5647
3435 5656
3435 5665
3436 4542
3436 4543
3436 4544
3436 5592
3436 5601
3436 5610
3437 4578
3437 4579
3437 4580
3437 5621
3437 5630
3437 5639
3438 4548
3438 4549
3438 4550
3438 5651
3438 5660
3438 5669
3439 4584
3439 4585
3439 4586
3439 5596
3439 5605
3439 5614
3440 4593
3440 4594
3440 4595
3440 5622
3440 5631
3440 5640
3441 4587
3441 4588
3441 4589
3441 5651
3441 5660
3441 5669
3442 4596
3442 4597
3442 4598
3442 5596
3442 5605
3442 5614
3443 4551
3443 4552
3443 4553
3443 5622
3443 5631
3443 5640
3444 4590
3444 4591
3444 4592
3444 5651
3444 5660
3444 5669
3445 4545
3445 4546
3445 4547
3445 5596
3445 5605
3445 5614
3446 4581
3446 4582
3446 4583
3446 5622
3446 5631
3446 5640
3447 4560
3447 4561
3447 4562
3447 5643
3447 5652
3447 5661
3448 4569
3448 4570
3448 4571
3448 5591
3448 5600
3448 5609
3449 4605
3449 4606
3449 4607
3449 5617
3449 5626
3449 5635
3450 4563
3450 4564
3450 4565
3450 5643
3450 5652
3450 5661
3451 4599
3451 4600
3451 4601
3451 5591
3451 5600
3451 5609
3452 4554
3452 4555
3452 4556
3452 5617
3452 5626
3452 5635
3453 4602
3453 4603
3453 4604
3453 5643
3453 5652
3453 5661
3454 4557
3454 4558
3454 4559
3454 5591
3454 5600
3454 5609
3455 4566
3455 4567
3455 4568
3455 5617
3455 5626
3455 5635
3456 4536
3456 4537
3456 4538
3456 5624
3456 5633
3456 5642
3457 4572
3457 4573
3457 4574
3457 5650
3457 5659
3457 5668
3458 4608
3458 4609
3458 4610
3458 5595
3458 5604
3458 5613
3459 4575
3459 4576
3459 4577
3459 5624
3459 5633
3459 5642
3460 4611
3460 4612
3460 4613
3460 5650
3460 5659
3460 5668
3461 4539
3461 4540
3461 4541
3461 5595
3461 5604
3461 5613
3462 4614
3462 4615
3462 4616
3462 5624
3462 5633
3462 5642
3463 4542
3463 4543
3463 4544
3463 5650
3463 5659
3463 5668
3464 4578
3464 4579
3464 4580
3464 5595
3464 5604
3464 5613
3465 4548
3465 4549
3465 4550
3465 5616
3465 5625
3465 5634
3466 4584
3466 4585
3466 4586
3466 5645
3466 5654
3466 5663
3467 4593
3467 4594
3467 4595
3467 5590
3467 5599
3467 5608
3468 4587
3468 4588
3468 4589
3468 5616
3468 5625
3468 5634
3469 4596
3469 4597
3469 4598
3469 5645
3469 5654
3469 5663
3470 4551
3470 4552
3470 4553
3470 5590
3470 5599
3470 5608
3471 4590
3471 4591
3471 4592
3471 5616
3471 5625
3471 5634
3472 4545
3472 4546
3472 4547
3472 5645
3472 5654
3472 5663
3473 4581
3473 4582
3473 4583
3473 5590
3473 5599
3473 5608
3474 4560
3474 4561
3474 4562
3474 5620
3474 5629
3474 5638
3475 4569
3475 4570
3475 4571
3475 5646
3475 5655
3475 5664
3476 4605
3476 4606
3476 4607
3476 5594
3476 5603
3476 5612
3477 4563
3477 4564
3477 4565
3477 5620
3477 5629
3477 5638
3478 4599
3478 4600
3478 4601
3478 5646
3478 5655
3478 5664
3479 4554
3479 4555
3479 4556
3479 5594
3479 5603
3479 5612
3480 4602
3480 4603
3480 4604
3480 5620
3480 5629
3480 5638
3481 4557
3481 4558
3481 4559
3481 5646
3481 5655
3481 5664
3482 4566
3482 4567
3482 4568
3482 5594
3482 5603
3482 5612
3483 4617
3483 4618
3483 4619
3483 5670
3483 5679
3483 5688
3484 4653
3484 4654
3484 4655
3484 5699
3484 5708
3484 5717
3485 4689
3485 4690
3485 4691
3485 5725
3485 5734
3485 5743
3486 4656
3486 4657
3486 4658
3486 5670
3486 5679
3486 5688
3487 4692
3487 4693
3487 4694
3487 5699
3487 5708
3487 5717
3488 4620
3488 4621
3488 4622
3488 5725
3488 5734
3488 5743
3489 4695
3489 4696
3489 4697
3489 5670
3489 5679
3489 5688
3490 4623
3490 4624
3490 4625
3490 5699
3490 5708
3490 5717
3491 4659
3491 4660
3491 4661
3491 5725
3491 5734
3491 5743
3492 4629
3492 4630
3492 4631
3492 5674
3492 5683
3492 5692
3493 4665
3493 4666
3493 4667
3493 5700
3493 5709
3493 5718
3494 4674
3494 4675
3494 4676
3494 5729
3494 5738
3494 5747
3495 4668
3495 4669
3495 4670
3495 5674
3495 5683
3495 5692
3496 4677
3496 4678
3496 4679
3496 5700
3496 5709
3496 5718
3497 4632
3497 4633
3497 4634
3497 5729
3497 5738
3497 5747
3498 4671
3498 4672
3498 4673
3498 5674
3498 5683
3498 5692
3499 4626
3499 4627
3499 4628
3499 5700
3499 5709
3499 5718
3500 4662
3500 4663
3500 4664
3500 5729
3500 5738
3500 5747
3501 4641
3501 4642
3501 4643
3501 5678
3501 5687
3501 5696
3502 4650
3502 4651
3502 4652
3502 5704
3502 5713
3502 5722
3503 4686
3503 4687
3503 4688
3503 5730
3503 5739
3503 5748
3504 4644
3504 4645
3504 4646
3504 5678
3504 5687
3504 5696
3505 4680
3505 4681
3505 4682
3505 5704
3505 5713
3505 5722
3506 4635
3506 4636
3506 4637
3506 5730
3506 5739
3506 5748
3507 4683
3507 4684
3507 4685
3507 5678
3507 5687
3507 5696
3508 4638
3508 4639
3508 4640
3508 5704
3508 5713
3508 5722
3509 4647
3509 4648
3509 4649
3509 5730
3509 5739
3509 5748
3510 4617
3510 4618
3510 4619
3510 5728
3510 5737
3510 5746
3511 4653
3511 4654
3511 4655
3511 5673
3511 5682
3511 5691
3512 4689
3512 4690
3512 4691
3512 5702
3512 5711
3512 5720
3513 4656
3513 4657
3513 4658
3513 5728
3513 5737
3513 5746
3514 4692
3514 4693
3514 4694
3514 5673
3514 5682
3514 5691
3515 4620
3515 4621
3515 4622
3515 5702
3515 5711
3515 5720
3516 4695
3516 4696
3516 4697
3516 5728
3516 5737
3516 5746
3517 4623
3517 4624
3517 4625
3517 5673
3517 5682
3517 5691
3518 4659
3518 4660
3518 4661
3518 5702
3518 5711
3518 5720
3519 4629
3519 4630
3519 4631
3519 5732
3519 5741
3519 5750
3520 4665
3520 4666
3520 4667
3520 5677
3520 5686
3520 5695
3521 4674
3521 4675
3521 4676
3521 5703
3521 5712
3521 5721
3522 4668
3522 4669
3522 4670
3522 5732
3522 5741
3522 5750
3523 4677
3523 4678
3523 4679
3523 5677
3523 5686
3523 5695
3524 4632
3524 4633
3524 4634
3524 5703
3524 5712
3524 5721
3525 4671
3525 4672
3525 4673
3525 5732
3525 5741
3525 5750
3526 4626
3526 4627
3526 4628
3526 5677
3526 5686
3526 5695
3527 4662
3527 4663
3527 4664
3527 5703
3527 5712
3527 5721
3528 4641
3528 4642
3528 4643
3528 5724
3528 5733
3528 5742
3529 4650
3529 4651
3529 4652
3529 5672
3529 5681
3529 5690
3530 4686
3530 4687
3530 4688
3530 5698
3530 5707
3530 5716
3531 4644
3531 4645
3531 4646
3531 5724
3531 5733
3531 5742
3532 4680
3532 4681
3532 4682
3532 5672
3532 5681
3532 5690
3533 4635
3533 4636
3533 4637
3533 5698
3533 5707
3533 5716
3534 4683
3534 4684
3534 4685
3534 5724
3534 5733
3534 5742
3535 4638
3535 4639
3535 4640
3535 5672
3535 5681
3535 5690
3536 4647
3536 4648
3536 4649
3536 5698
3536 5707
3536 5716
3537 4617
3537 4618
3537 4619
3537 5705
3537 5714
3537 5723
3538 4653
3538 4654
3538 4655
3538 5731
3538 5740
3538 5749
3539 4689
3539 4690
3539 4691
3539 5676
3539 5685
3539 5694
3540 4656
3540 4657
3540 4658
3540 5705
3540 5714
3540 5723
3541 4692
3541 4693
3541 4694
3541 5731
3541 5740
3541 5749
3542 4620
3542 4621
3542 4622
3542 5676
3542 5685
3542 5694
3543 4695
3543 4696
3543 4697
3543 5705
3543 5714
3543 5723
3544 4623
3544 4624
3544 4625
3544 5731
3544 5740
3544 5749
3545 4659
3545 4660
3545 4661
3545 5676
3545 5685
3545 5694
3546 4629
3546 4630
3546 4631
3546 5697
3546 5706
3546 5715
3547 4665
3547 4666
3547 4667
3547 5726
3547 5735
3547 5744
3548 4674
3548 4675
3548 4676
3548 5671
3548 5680
3548 5689
3549 4668
3549 4669
3549 4670
3549 5697
3549 5706
3549 5715
3550 4677
3550 4678
3550 4679
3550 5726
3550 5735
3550 5744
3551 4632
3551 4633
3551 4634
3551 5671
3551 5680
3551 5689
3552 4671
3552 4672
3552 4673
3552 5697
3552 5706
3552 5715
3553 4626
3553 4627
3553 4628
3553 5726
3553 5735
3553 5744
3554 4662
3554 4663
3554 4664
3554 5671
3554 5680
3554 5689
3555 4641
3555 4642
3555 4643
3555 5701
3555 5710
3555 5719
3556 4650
3556 4651
3556 4652
3556 5727
3556 5736
3556 5745
3557 4686
3557 4687
3557 4688
3557 5675
3557 5684
3557 5693
3558 4644
3558 4645
3558 4646
3558 5701
3558 5710
3558 5719
3559 4680
3559 4681
3559 4682
3559 5727
3559 5736
3559 5745
3560 4635
3560 4636
3560 4637
3560 5675
3560 5684
3560 5693
3561 4683
3561 4684
3561 4685
3561 5701
3561 5710
3561 5719
3562 4638
3562 4639
3562 4640
3562 5727
3562 5736
3562 5745
3563 4647
3563 4648
3563 4649
3563 5675
3563 5684
3563 5693
3564 4698
3564 4699
3564 4700
3564 5751
3564 5760
3564 5769
3565 4734
3565 4735
3565 4736
3565 5780
3565 5789
3565 5798
3566 4770
3566 4771
3566 4772
3566 5806
3566 5815
3566 5824
3567 4737
3567 4738
3567 4739
3567 5751
3567 5760
3567 5769
3568 4773
3568 4774
3568 4775
3568 5780
3568 5789
3568 5798
3569 4701
3569 4702
3569 4703
3569 5806
3569 5815
3569 5824
3570 4776
3570 4777
3570 4778
3570 5751
3570 5760
3570 5769
3571 4704
3571 4705
3571 4706
3571 5780
3571 5789
3571 5798
3572 4740
3572 4741
3572 4742
3572 5806
3572 5815
3572 5824
3573 4710
3573 4711
3573 4712
3573 5755
3573 5764
3573 5773
3574 4746
3574 4747
3574 4748
3574 5781
3574 5790
3574 5799
3575 4755
3575 4756
3575 4757
3575 5810
3575 5819
3575 5828
3576 4749
3576 4750
3576 4751
3576 5755
3576 5764
3576 5773
3577 4758
3577 4759
3577 4760
3577 5781
3577 5790
3577 5799
3578 4713
3578 4714
3578 4715
3578 5810
3578 5819
3578 5828
3579 4752
3579 4753
3579 4754
3579 5755
3579 5764
3579 5773
3580 4707
3580 4708
3580 4709
3580 5781
3580 5790
3580 5799
3581 4743
3581 4744
3581 4745
3581 5810
3581 5819
3581 5828
3582 4722
3582 4723
3582 4724
3582 5759
3582 5768
3582 5777
3583 4731
3583 4732
3583 4733
3583 5785
3583 5794
3583 5803
3584 4767
3584 4768
3584 4769
3584 5811
3584 5820
3584 5829
3585 4725
3585 4726
3585 4727
3585 5759
3585 5768
3585 5777
3586 4761
3586 4762
3586 4763
3586 5785
3586 5794
3586 5803
3587 4716
3587 4717
3587 4718
3587 5811
3587 5820
3587 5829
3588 4764
3588 4765
3588 4766
3588 5759
3588 5768
3588 5777
3589 4719
3589 4720
3589 4721
3589 5785
3589 5794
3589 5803
3590 4728
3590 4729
3590 4730
3590 5811
3590 5820
3590 5829
3591 4698
3591 4699
3591 4700
3591 5809
3591 5818
3591 5827
3592 4734
3592 4735
3592 4736
3592 5754
3592 5763
3592 5772
3593 4770
3593 4771
3593 4772
3593 5783
3593 5792
3593 5801
3594 4737
3594 4738
3594 4739
3594 5809
3594 5818
3594 5827
3595 4773
3595 4774
3595 4775
3595 5754
3595 5763
3595 5772
3596 4701
3596 4702
3596 4703
3596 5783
3596 5792
3596 5801
3597 4776
3597 4777
3597 4778
3597 5809
3597 5818
3597 5827
3598 4704
3598 4705
3598 4706
3598 5754
3598 5763
3598 5772
3599 4740
3599 4741
3599 4742
3599 5783
3599 5792
3599 5801
3600 4710
3600 4711
3600 4712
3600 5813
3600 5822
3600 5831
3601 4746
3601 4747
3601 4748
3601 5758
3601 5767
3601 5776
3602 4755
3602 4756
3602 4757
3602 5784
3602 5793
3602 5802
3603 4749
3603 4750
3603 4751
3603 5813
3603 5822
3603 5831
3604 4758
3604 4759
3604 4760
3604 5758
3604 5767
3604 5776
3605 4713
3605 4714
3605 4715
3605 5784
3605 5793
3605 5802
3606 4752
3606 4753
3606 4754
3606 5813
3606 5822
3606 5831
3607 4707
3607 4708
3607 4709
3607 5758
3607 5767
3607 5776
3608 4743
3608 4744
3608 4745
3608 5784
3608 5793
3608 5802
3609 4722
3609 4723
3609 4724
3609 5805
3609 5814
3609 5823
3610 4731
3610 4732
3610 4733
3610 5753
3610 5762
3610 5771
3611 4767
3611 4768
3611 4769
3611 5779
3611 5788
3611 5797
3612 4725
3612 4726
3612 4727
3612 5805
3612 5814
3612 5823
3613 4761
3613 4762
3613 4763
3613 5753
3613 5762
3613 5771
3614 4716
3614 4717
3614 4718
3614 5779
3614 5788
3614 5797
3615 4764
3615 4765
3615 4766
3615 5805
3615 5814
3615 5823
3616 4719
3616 4720
3616 4721
3616 5753
3616 5762
3616 5771
3617 4728
3617 4729
3617 4730
3617 5779
3617 5788
3617 5797
3618 4698
3618 4699
3618 4700
3618 5786
3618 5795
3618 5804
3619 4734
3619 4735
3619 4736
3619 5812
3619 5821
3619 5830
3620 4770
3620 4771
3620 4772
3620 5757
3620 5766
3620 5775
3621 4737
3621 4738
3621 4739
3621 5786
3621 5795
3621 5804
3622 4773
3622 4774
3622 4775
3622 5812
3622 5821
3622 5830
3623 4701
3623 4702
3623 4703
3623 5757
3623 5766
3623 5775
3624 4776
3624 4777
3624 4778
3624 5786
3624 5795
3624 5804
3625 4704
3625 4705
3625 4706
3625 5812
3625 5821
3625 5830
3626 4740
3626 4741
3626 4742
3626 5757
3626 5766
3626 5775
3627 4710
3627 4711
3627 4712
3627 5778
3627 5787
3627 5796
3628 4746
3628 4747
3628 4748
3628 5807
3628 5816
3628 5825
3629 4755
3629 4756
3629 4757
3629 5752
3629 5761
3629 5770
3630 4749
3630 4750
3630 4751
3630 5778
3630 5787
3630 5796
3631 4758
3631 4759
3631 4760
3631 5807
3631 5816
3631 5825
3632 4713
3632 4714
3632 4715
3632 5752
3632 5761
3632 5770
3633 4752
3633 4753
3633 4754
3633 5778
3633 5787
3633 5796
3634 4707
3634 4708
3634 4709
3634 5807
3634 5816
3634 5825
3635 4743
3635 4744
3635 4745
3635 5752
3635 5761
3635 5770
3636 4722
3636 4723
3636 4724
3636 5782
3636 5791
3636 5800
3637 4731
3637 4732
3637 4733
3637 5808
3637 5817
3637 5826
3638 4767
3638 4768
3638 4769
3638 5756
3638 5765
3638 5774
3639 4725
3639 4726
3639 4727
3639 5782
3639 5791
3639 5800
3640 4761
3640 4762
3640 4763
3640 5808
3640 5817
3640 5826
3641 4716
3641 4717
3641 4718
3641 5756
3641 5765
3641 5774
3642 4764
3642 4765
3642 4766
3642 5782
3642 5791
3642 5800
3643 4719
3643 4720
3643 4721
3643 5808
3643 5817
3643 5826
3644 4728
3644 4729
3644 4730
3644 5756
3644 5765
3644 5774
3645 4617
3645 4626
3645 4635
3645 5508
3645 5509
3645 5510
3646 4646
3646 4655
3646 4664
3646 5544
3646 5545
3646 5546
3647 4672
3647 4681
3647 4690
3647 5580
3647 5581
3647 5582
3648 4617
3648 4626
3648 4635
3648 5547
3648 5548
3648 5549
3649 4646
3649 4655
3649 4664
3649 5583
3649 5584
3649 5585
3650 4672
3650 4681
3650 4690
3650 5511
3650 5512
3650 5513
3651 4617
3651 4626
3651 4635
3651 5586
3651 5587
3651 5588
3652 4646
3652 4655
3652 4664
3652 5514
3652 5515
3652 5516
3653 4672
3653 4681
3653 4690
3653 5550
3653 5551
3653 5552
3654 4621
3654 4630
3654 4639
3654 5520
3654 5521
3654 5522
3655 4647
3655 4656
3655 4665
3655 5556
3655 5557
3655 5558
3656 4676
3656 4685
3656 4694
3656 5565
3656 5566
3656 5567
3657 4621
3657 4630
3657 4639
3657 5559
3657 5560
3657 5561
3658 4647
3658 4656
3658 4665
3658 5568
3658 5569
3658 5570
3659 4676
3659 4685
3659 4694
3659 5523
3659 5524
3659 5525
3660 4621
3660 4630
3660 4639
3660 5562
3660 5563
3660 5564
3661 4647
3661 4656
3661 4665
3661 5517
3661 5518
3661 5519
3662 4676
3662 4685
3662 4694
3662 5553
3662 5554
3662 5555
3663 4625
3663 4634
3663 4643
3663 5532
3663 5533
3663 5534
3664 4651
3664 4660
3664 4669
3664 5541
3664 5542
3664 5543
3665 4677
3665 4686
3665 4695
3665 5577
3665 5578
3665 5579
3666 4625
3666 4634
3666 4643
3666 5535
3666 5536
3666 5537
3667 4651
3667 4660
3667 4669
3667 5571
3667 5572
3667 5573
3668 4677
3668 4686
3668 4695
3668 5526
3668 5527
3668 5528
3669 4625
3669 4634
3669 4643
3669 5574
3669 5575
3669 5576
3670 4651
3670 4660
3670 4669
3670 5529
3670 5530
3670 5531
3671 4677
3671 4686
3671 4695
3671 5538
3671 5539
3671 5540
3672 4675
3672 4684
3672 4693
3672 5508
3672 5509
3672 5510
3673 4620
3673 4629
3673 4638
3673 5544
3673 5545
3673 5546
3674 4649
3674 4658
3674 4667
3674 5580
3674 5581
3674 5582
3675 4675
3675 4684
3675 4693
3675 5547
3675 5548
3675 5549
3676 4620
3676 4629
3676 4638
3676 5583
3676 5584
3676 5585
3677 4649
3677 4658
3677 4667
3677 5511
3677 5512
3677 5513
3678 4675
3678 4684
3678 4693
3678 5586
3678 5587
3678 5588
3679 4620
3679 4629
3679 4638
3679 5514
3679 5515
3679 5516
3680 4649
3680 4658
3680 4667
3680 5550
3680 5551
3680 5552
3681 4679
3681 4688
3681 4697
3681 5520
3681 5521
3681 5522
3682 4624
3682 4633
3682 4642
3682 5556
3682 5557
3682 5558
3683 4650
3683 4659
3683 4668
3683 5565
3683 5566
3683 5567
3684 4679
3684 4688
3684 4697
3684 5559
3684 5560
3684 5561
3685 4624
3685 4633
3685 4642
3685 5568
3685 5569
3685 5570
3686 4650
3686 4659
3686 4668
3686 5523
3686 5524
3686 5525
3687 4679
3687 4688
3687 4697
3687 5562
3687 5563
3687 5564
3688 4624
3688 4633
3688 4642
3688 5517
3688 5518
3688 5519
3689 4650
3689 4659
3689 4668
3689 5553
3689 5554
3689 5555
3690 4671
3690 4680
3690 4689
3690 5532
3690 5533
3690 5534
3691 4619
3691 4628
3691 4637
3691 5541
3691 5542
3691 5543
3692 4645
3692 4654
3692 4663
3692 5577
3692 5578
3692 5579
3693 4671
3693 4680
3693 4689
3693 5535
3693 5536
3693 5537
3694 4619
3694 4628
3694 4637
3694 5571
3694 5572
3694 5573
3695 4645
3695 4654
3695 4663
3695 5526
3695 5527
3695 5528
3696 4671
3696 4680
3696 4689
3696 5574
3696 5575
3696 5576
3697 4619
3697 4628
3697 4637
3697 5529
3697 5530
3697 5531
3698 4645
3698 4654
3698 4663
3698 5538
3698 5539
3698 5540
3699 4652
3699 4661
3699 4670
3699 5508
3699 5509
3699 5510
3700 4678
3700 4687
3700 4696
3700 5544
3700 5545
3700 5546
3701 4623
3701 4632
3701 4641
3701 5580
3701 5581
3701 5582
3702 4652
3702 4661
3702 4670
3702 5547
3702 5548
3702 5549
3703 4678
3703 4687
3703 4696
3703 5583
3703 5584
3703 5585
3704 4623
3704 4632
3704 4641
3704 5511
3704 5512
3704 5513
3705 4652
3705 4661
3705 4670
3705 5586
3705 5587
3705 5588
3706 4678
3706 4687
3706 4696
3706 5514
3706 5515
3706 5516
3707 4623
3707 4632
3707 4641
3707 5550
3707 5551
3707 5552
3708 4644
3708 4653
3708 4662
3708 5520
3708 5521
3708 5522
3709 4673
3709 4682
3709 4691
3709 5556
3709 5557
3709 5558
3710 4618
3710 4627
3710 4636
3710 5565
3710 5566
3710 5567
3711 4644
3711 4653
3711 4662
3711 5559
3711 5560
3711 5561
3712 4673
3712 4682
3712 4691
3712 5568
3712 5569
3712 5570
3713 4618
3713 4627
3713 4636
3713 5523
3713 5524
3713 5525
3714 4644
3714 4653
3714 4662
3714 5562
3714 5563
3714 5564
3715 4673
3715 4682
3715 4691
3715 5517
3715 5518
3715 5519
3716 4618
3716 4627
3716 4636
3716 5553
3716 5554
3716 5555
3717 4648
3717 4657
3717 4666
3717 5532
3717 5533
3717 5534
3718 4674
3718 4683
3718 4692
3718 5541
3718 5542
3718 5543
3719 4622
3719 4631
3719 4640
3719 5577
3719 5578
3719 5579
3720 4648
3720 4657
3720 4666
3720 5535
3720 5536
3720 5537
3721 4674
3721 4683
3721 4692
3721 5571
3721 5572
3721 5573
3722 4622
3722 4631
3722 4640
3722 5526
3722 5527
3722 5528
3723 4648
3723 4657
3723 4666
3723 5574
3723 5575
3723 5576
3724 4674
3724 4683
3724 4692
3724 5529
3724 5530
3724 5531
3725 4622
3725 4631
3725 4640
3725 5538
3725 5539
3725 5540
3726 4698
3726 4707
3726 4716
3726 5589
3726 5590
3726 5591
3727 4727
3727 4736
3727 4745
3727 5625
3727 5626
3727 5627
3728 4753
3728 4762
3728 4771
3728 5661
3728 5662
3728 5663
3729 4698
3729 4707
3729 4716
3729 5628
3729 5629
3729 5630
3730 4727
3730 4736
3730 4745
3730 5664
3730 5665
3730 5666
3731 4753
3731 4762
3731 4771
3731 5592
3731 5593
3731 5594
3732 4698
3732 4707
3732 4716
3732 5667
3732 5668
3732 5669
3733 4727
3733 4736
3733 4745
3733 5595
3733 5596
3733 5597
3734 4753
3734 4762
3734 4771
3734 5631
3734 5632
3734 5633
3735 4702
3735 4711
3735 4720
3735 5601
3735 5602
3735 5603
3736 4728
3736 4737
3736 4746
3736 5637
3736 5638
3736 5639
3737 4757
3737 4766
3737 4775
3737 5646
3737 5647
3737 5648
3738 4702
3738 4711
3738 4720
3738 5640
3738 5641
3738 5642
3739 4728
3739 4737
3739 4746
3739 5649
3739 5650
3739 5651
3740 4757
3740 4766
3740 4775
3740 5604
3740 5605
3740 5606
3741 4702
3741 4711
3741 4720
3741 5643
3741 5644
3741 5645
3742 4728
3742 4737
3742 4746
3742 5598
3742 5599
3742 5600
3743 4757
3743 4766
3743 4775
3743 5634
3743 5635
3743 5636
3744 4706
3744 4715
3744 4724
3744 5613
3744 5614
3744 5615
3745 4732
3745 4741
3745 4750
3745 5622
3745 5623
3745 5624
3746 4758
3746 4767
3746 4776
3746 5658
3746 5659
3746 5660
3747 4706
3747 4715
3747 4724
3747 5616
3747 5617
3747 5618
3748 4732
3748 4741
3748 4750
3748 5652
3748 5653
3748 5654
3749 4758
3749 4767
3749 4776
3749 5607
3749 5608
3749 5609
3750 4706
3750 4715
3750 4724
3750 5655
3750 5656
3750 5657
3751 4732
3751 4741
3751 4750
3751 5610
3751 5611
3751 5612
3752 4758
3752 4767
3752 4776
3752 5619
3752 5620
3752 5621
3753 4756
3753 4765
3753 4774
3753 5589
3753 5590
3753 5591
3754 4701
3754 4710
3754 4719
3754 5625
3754 5626
3754 5627
3755 4730
3755 4739
3755 4748
3755 5661
3755 5662
3755 5663
3756 4756
3756 4765
3756 4774
3756 5628
3756 5629
3756 5630
3757 4701
3757 4710
3757 4719
3757 5664
3757 5665
3757 5666
3758 4730
3758 4739
3758 4748
3758 5592
3758 5593
3758 5594
3759 4756
3759 4765
3759 4774
3759 5667
3759 5668
3759 5669
3760 4701
3760 4710
3760 4719
3760 5595
3760 5596
3760 5597
3761 4730
3761 4739
3761 4748
3761 5631
3761 5632
3761 5633
3762 4760
3762 4769
3762 4778
3762 5601
3762 5602
3762 5603
3763 4705
3763 4714
3763 4723
3763 5637
3763 5638
3763 5639
3764 4731
3764 4740
3764 4749
3764 5646
3764 5647
3764 5648
3765 4760
3765 4769
3765 4778
3765 5640
3765 5641
3765 5642
3766 4705
3766 4714
3766 4723
3766 5649
3766 5650
3766 5651
3767 4731
3767 4740
3767 4749
3767 5604
3767 5605
3767 5606
3768 4760
3768 4769
3768 4778
3768 5643
3768 5644
3768 5645
3769 4705
3769 4714
3769 4723
3769 5598
3769 5599
3769 5600
3770 4731
3770 4740
3770 4749
3770 5634
3770 5635
3770 5636
3771 4752
3771 4761
3771 4770
3771 5613
3771 5614
3771 5615
3772 4700
3772 4709
3772 4718
3772 5622
3772 5623
3772 5624
3773 4726
3773 4735
3773 4744
3773 5658
3773 5659
3773 5660
3774 4752
3774 4761
3774 4770
3774 5616
3774 5617
3774 5618
3775 4700
3775 4709
3775 4718
3775 5652
3775 5653
3775 5654
3776 4726
3776 4735
3776 4744
3776 5607
3776 5608
3776 5609
3777 4752
3777 4761
3777 4770
3777 5655
3777 5656
3777 5657
3778 4700
3778 4709
3778 4718
3778 5610
3778 5611
3778 5612
3779 4726
3779 4735
3779 4744
3779 5619
3779 5620
3779 5621
3780 4733
3780 4742
3780 4751
3780 5589
3780 5590
3780 5591
3781 4759
3781 4768
3781 4777
3781 5625
3781 5626
3781 5627
3782 4704
3782 4713
3782 4722
3782 5661
3782 5662
3782 5663
3783 4733
3783 4742
3783 4751
3783 5628
3783 5629
3783 5630
3784 4759
3784 4768
3784 4777
3784 5664
3784 5665
3784 5666
3785 4704
3785 4713
3785 4722
3785 5592
3785 5593
3785 5594
3786 4733
3786 4742
3786 4751
3786 5667
3786 5668
3786 5669
3787 4759
3787 4768
3787 4777
3787 5595
3787 5596
3787 5597
3788 4704
3788 4713
3788 4722
3788 5631
3788 5632
3788 5633
3789 4725
3789 4734
3789 4743
3789 5601
3789 5602
3789 5603
3790 4754
3790 4763
3790 4772
3790 5637
3790 5638
3790 5639
3791 4699
3791 4708
3791 4717
3791 5646
3791 5647
3791 5648
3792 4725
3792 4734
3792 4743
3792 5640
3792 5641
3792 5642
3793 4754
3793 4763
3793 4772
3793 5649
3793 5650
3793 5651
3794 4699
3794 4708
3794 4717
3794 5604
3794 5605
3794 5606
3795 4725
3795 4734
3795 4743
3795 5643
3795 5644
3795 5645
3796 4754
3796 4763
3796 4772
3796 5598
3796 5599
3796 5600
3797 4699
3797 4708
3797 4717
3797 5634
3797 5635
3797 5636
3798 4729
3798 4738
3798 4747
3798 5613
3798 5614
3798 5615
3799 4755
3799 4764
3799 4773
3799 5622
3799 5623
3799 5624
3800 4703
3800 4712
3800 4721
3800 5658
3800 5659
3800 5660
3801 4729
3801 4738
3801 4747
3801 5616
3801 5617
3801 5618
3802 4755
3802 4764
3802 4773
3802 5652
3802 5653
3802 5654
3803 4703
3803 4712
3803 4721
3803 5607
3803 5608
3803 5609
3804 4729
3804 4738
3804 4747
3804 5655
3804 5656
3804 5657
3805 4755
3805 4764
3805 4773
3805 5610
3805 5611
3805 5612
3806 4703
3806 4712
3806 4721
3806 5619
3806 5620
3806 5621
3807 4779
3807 4788
3807 4797
3807 5670
3807 5671
3807 5672
3808 4808
3808 4817
3808 4826
3808 5706
3808 5707
3808 5708
3809 4834
3809 4843
3809 4852
3809 5742
3809 5743
3809 5744
3810 4779
3810 4788
3810 4797
3810 5709
3810 5710
3810 5711
3811 4808
3811 4817
3811 4826
3811 5745
3811 5746
3811 5747
3812 4834
3812 4843
3812 4852
3812 5673
3812 5674
3812 5675
3813 4779
3813 4788
3813 4797
3813 5748
3813 5749
3813 5750
3814 4808
3814 4817
3814 4826
3814 5676
3814 5677
3814 5678
3815 4834
3815 4843
3815 4852
3815 5712
3815 5713
3815 5714
3816 4783
3816 4792
3816 4801
3816 5682
3816 5683
3816 5684
3817 4809
3817 4818
3817 4827
3817 5718
3817 5719
3817 5720
3818 4838
3818 4847
3818 4856
3818 5727
3818 5728
3818 5729
3819 4783
3819 4792
3819 4801
3819 5721
3819 5722
3819 5723
3820 4809
3820 4818
3820 4827
3820 5730
3820 5731
3820 5732
3821 4838
3821 4847
3821 4856
3821 5685
3821 5686
3821 5687
3822 4783
3822 4792
3822 4801
3822 5724
3822 5725
3822 5726
3823 4809
3823 4818
3823 4827
3823 5679
3823 5680
3823 5681
3824 4838
3824 4847
3824 4856
3824 5715
3824 5716
3824 5717
3825 4787
3825 4796
3825 4805
3825 5694
3825 5695
3825 5696
3826 4813
3826 4822
3826 4831
3826 5703
3826 5704
3826 5705
3827 4839
3827 4848
3827 4857
3827 5739
3827 5740
3827 5741
3828 4787
3828 4796
3828 4805
3828 5697
3828 5698
3828 5699
3829 4813
3829 4822
3829 4831
3829 5733
3829 5734
3829 5735
3830 4839
3830 4848
3830 4857
3830 5688
3830 5689
3830 5690
3831 4787
3831 4796
3831 4805
3831 5736
3831 5737
3831 5738
3832 4813
3832 4822
3832 4831
3832 5691
3832 5692
3832 5693
3833 4839
3833 4848
3833 4857
3833 5700
3833 5701
3833 5702
3834 4837
3834 4846
3834 4855
3834 5670
3834 5671
3834 5672
3835 4782
3835 4791
3835 4800
3835 5706
3835 5707
3835 5708
3836 4811
3836 4820
3836 4829
3836 5742
3836 5743
3836 5744
3837 4837
3837 4846
3837 4855
3837 5709
3837 5710
3837 5711
3838 4782
3838 4791
3838 4800
3838 5745
3838 5746
3838 5747
3839 4811
3839 4820
3839 4829
3839 5673
3839 5674
3839 5675
3840 4837
3840 4846
3840 4855
3840 5748
3840 5749
3840 5750
3841 4782
3841 4791
3841 4800
3841 5676
3841 5677
3841 5678
3842 4811
3842 4820
3842 4829
3842 5712
3842 5713
3842 5714
3843 4841
3843 4850
3843 4859
3843 5682
3843 5683
3843 5684
3844 4786
3844 4795
3844 4804
3844 5718
3844 5719
3844 5720
3845 4812
3845 4821
3845 4830
3845 5727
3845 5728
3845 5729
3846 4841
3846 4850
3846 4859
3846 5721
3846 5722
3846 5723
3847 4786
3847 4795
3847 4804
3847 5730
3847 5731
3847 5732
3848 4812
3848 4821
3848 4830
3848 5685
3848 5686
3848 5687
3849 4841
3849 4850
3849 4859
3849 5724
3849 5725
3849 5726
3850 4786
3850 4795
3850 4804
3850 5679
3850 5680
3850 5681
3851 4812
3851 4821
3851 4830
3851 5715
3851 5716
3851 5717
3852 4833
3852 4842
3852 4851
3852 5694
3852 5695
3852 5696
3853 4781
3853 4790
3853 4799
3853 5703
3853 5704
3853 5705
3854 4807
3854 4816
3854 4825
3854 5739
3854 5740
3854 5741
3855 4833
3855 4842
3855 4851
3855 5697
3855 5698
3855 5699
3856 4781
3856 4790
3856 4799
3856 5733
3856 5734
3856 5735
3857 4807
3857 4816
3857 4825
3857 5688
3857 5689
3857 5690
3858 4833
3858 4842
3858 4851
3858 5736
3858 5737
3858 5738
3859 4781
3859 4790
3859 4799
3859 5691
3859 5692
3859 5693
3860 4807
3860 4816
3860 4825
3860 5700
3860 5701
3860 5702
3861 4814
3861 4823
3861 4832
3861 5670
3861 5671
3861 5672
3862 4840
3862 4849
3862 4858
3862 5706
3862 5707
3862 5708
3863 4785
3863 4794
3863 4803
3863 5742
3863 5743
3863 5744
3864 4814
3864 4823
3864 4832
3864 5709
3864 5710
3864 5711
3865 4840
3865 4849
3865 4858
3865 5745
3865 5746
3865 5747
3866 4785
3866 4794
3866 4803
3866 5673
3866 5674
3866 5675
3867 4814
3867 4823
3867 4832
3867 5748
3867 5749
3867 5750
3868 4840
3868 4849
3868 4858
3868 5676
3868 5677
3868 5678
3869 4785
3869 4794
3869 4803
3869 5712
3869 5713
3869 5714
3870 4806
3870 4815
3870 4824
3870 5682
3870 5683
3870 5684
3871 4835
3871 4844
3871 4853
3871 5718
3871 5719
3871 5720
3872 4780
3872 4789
3872 4798
3872 5727
3872 5728
3872 5729
3873 4806
3873 4815
3873 4824
3873 5721
3873 5722
3873 5723
3874 4835
3874 4844
3874 4853
3874 5730
3874 5731
3874 5732
3875 4780
3875 4789
3875 4798
3875 5685
3875 5686
3875 5687
3876 4806
3876 4815
3876 4824
3876 5724
3876 5725
3876 5726
3877 4835
3877 4844
3877 4853
3877 5679
3877 5680
3877 5681
3878 4780
3878 4789
3878 4798
3878 5715
3878 5716
3878 5717
3879 4810
3879 4819
3879 4828
3879 5694
3879 5695
3879 5696
3880 4836
3880 4845
3880 4854
3880 5703
3880 5704
3880 5705
3881 4784
3881 4793
3881 4802
3881 5739
3881 5740
3881 5741
3882 4810
3882 4819
3882 4828
3882 5697
3882 5698
3882 5699
3883 4836
3883 4845
3883 4854
3883 5733
3883 5734
3883 5735
3884 4784
3884 4793
3884 4802
3884 5688
3884 5689
3884 5690
3885 4810
3885 4819
3885 4828
3885 5736
3885 5737
3885 5738
3886 4836
3886 4845
3886 4854
3886 5691
3886 5692
3886 5693
3887 4784
3887 4793
3887 4802
3887 5700
3887 5701
3887 5702
3888 4860
3888 4869
3888 4878
3888 5751
3888 5752
3888 5753
3889 4889
3889 4898
3889 4907
3889 5787
3889 5788
3889 5789
3890 4915
3890 4924
3890 4933
3890 5823
3890 5824
3890 5825
3891 4860
3891 4869
3891 4878
3891 5790
3891 5791
3891 5792
3892 4889
3892 4898
3892 4907
3892 5826
3892 5827
3892 5828
3893 4915
3893 4924
3893 4933
3893 5754
3893 5755
3893 5756
3894 4860
3894 4869
3894 4878
3894 5829
3894 5830
3894 5831
3895 4889
3895 4898
3895 4907
3895 5757
3895 5758
3895 5759
3896 4915
3896 4924
3896 4933
3896 5793
3896 5794
3896 5795
3897 4864
3897 4873
3897 4882
3897 5763
3897 5764
3897 5765
3898 4890
3898 4899
3898 4908
3898 5799
3898 5800
3898 5801
3899 4919
3899 4928
3899 4937
3899 5808
3899 5809
3899 5810
3900 4864
3900 4873
3900 4882
3900 5802
3900 5803
3900 5804
3901 4890
3901 4899
3901 4908
3901 5811
3901 5812
3901 5813
3902 4919
3902 4928
3902 4937
3902 5766
3902 5767
3902 5768
3903 4864
3903 4873
3903 4882
3903 5805
3903 5806
3903 5807
3904 4890
3904 4899
3904 4908
3904 5760
3904 5761
3904 5762
3905 4919
3905 4928
3905 4937
3905 5796
3905 5797
3905 5798
3906 4868
3906 4877
3906 4886
3906 5775
3906 5776
3906 5777
3907 4894
3907 4903
3907 4912
3907 5784
3907 5785
3907 5786
3908 4920
3908 4929
3908 4938
3908 5820
3908 5821
3908 5822
3909 4868
3909 4877
3909 4886
3909 5778
3909 5779
3909 5780
3910 4894
3910 4903
3910 4912
3910 5814
3910 5815
3910 5816
3911 4920
3911 4929
3911 4938
3911 5769
3911 5770
3911 5771
3912 4868
3912 4877
3912 4886
3912 5817
3912 5818
3912 5819
3913 4894
3913 4903
3913 4912
3913 5772
3913 5773
3913 5774
3914 4920
3914 4929
3914 4938
3914 5781
3914 5782
3914 5783
3915 4918
3915 4927
3915 4936
3915 5751
3915 5752
3915 5753
3916 4863
3916 4872
3916 4881
3916 5787
3916 5788
3916 5789
3917 4892
3917 4901
3917 4910
3917 5823
3917 5824
3917 5825
3918 4918
3918 4927
3918 4936
3918 5790
3918 5791
3918 5792
3919 4863
3919 4872
3919 4881
3919 5826
3919 5827
3919 5828
3920 4892
3920 4901
3920 4910
3920 5754
3920 5755
3920 5756
3921 4918
3921 4927
3921 4936
3921 5829
3921 5830
3921 5831
3922 4863
3922 4872
3922 4881
3922 5757
3922 5758
3922 5759
3923 4892
3923 4901
3923 4910
3923 5793
3923 5794
3923 5795
3924 4922
3924 4931
3924 4940
3924 5763
3924 5764
3924 5765
3925 4867
3925 4876
3925 4885
3925 5799
3925 5800
3925 5801
3926 4893
3926 4902
3926 4911
3926 5808
3926 5809
3926 5810
3927 4922
3927 4931
3927 4940
3927 5802
3927 5803
3927 5804
3928 4867
3928 4876
3928 4885
3928 5811
3928 5812
3928 5813
3929 4893
3929 4902
3929 4911
3929 5766
3929 5767
3929 5768
3930 4922
3930 4931
3930 4940
3930 5805
3930 5806
3930 5807
3931 4867
3931 4876
3931 4885
3931 5760
3931 5761
3931 5762
3932 4893
3932 4902
3932 4911
3932 5796
3932 5797
3932 5798
3933 4914
3933 4923
3933 4932
3933 5775
3933 5776
3933 5777
3934 4862
3934 4871
3934 4880
3934 5784
3934 5785
3934 5786
3935 4888
3935 4897
3935 4906
3935 5820
3935 5821
3935 5822
3936 4914
3936 4923
3936 4932
3936 5778
3936 5779
3936 5780
3937 4862
3937 4871
3937 4880
3937 5814
3937 5815
3937 5816
3938 4888
3938 4897
3938 4906
3938 5769
3938 5770
3938 5771
3939 4914
3939 4923
3939 4932
3939 5817
3939 5818
3939 5819
3940 4862
3940 4871
3940 4880
3940 5772
3940 5773
3940 5774
3941 4888
3941 4897
3941 4906
3941 5781
3941 5782
3941 5783
3942 4895
3942 4904
3942 4913
3942 5751
3942 5752
3942 5753
3943 4921
3943 4930
3943 4939
3943 5787
3943 5788
3943 5789
3944 4866
3944 4875
3944 4884
3944 5823
3944 5824
3944 5825
3945 4895
3945 4904
3945 4913
3945 5790
3945 5791
3945 5792
3946 4921
3946 4930
3946 4939
3946 5826
3946 5827
3946 5828
3947 4866
3947 4875
3947 4884
3947 5754
3947 5755
3947 5756
3948 4895
3948 4904
3948 4913
3948 5829
3948 5830
3948 5831
3949 4921
3949 4930
3949 4939
3949 5757
3949 5758
3949 5759
3950 4866
3950 4875
3950 4884
3950 5793
3950 5794
3950 5795
3951 4887
3951 4896
3951 4905
3951 5763
3951 5764
3951 5765
3952 4916
3952 4925
3952 4934
3952 5799
3952 5800
3952 5801
3953 4861
3953 4870
3953 4879
3953 5808
3953 5809
3953 5810
3954 4887
3954 4896
3954 4905
3954 5802
3954 5803
3954 5804
3955 4916
3955 4925
3955 4934
3955 5811
3955 5812
3955 5813
3956 4861
3956 4870
3956 4879
3956 5766
3956 5767
3956 5768
3957 4887
3957 4896
3957 4905
3957 5805
3957 5806
3957 5807
3958 4916
3958 4925
3958 4934
3958 5760
3958 5761
3958 5762
3959 4861
3959 4870
3959 4879
3959 5796
3959 5797
3959 5798
3960 4891
3960 4900
3960 4909
3960 5775
3960 5776
3960 5777
3961 4917
3961 4926
3961 4935
3961 5784
3961 5785
3961 5786
3962 4865
3962 4874
3962 4883
3962 5820
3962 5821
3962 5822
3963 4891
3963 4900
3963 4909
3963 5778
3963 5779
3963 5780
3964 4917
3964 4926
3964 4935
3964 5814
3964 5815
3964 5816
3965 4865
3965 4874
3965 4883
3965 5769
3965 5770
3965 5771
3966 4891
3966 4900
3966 4909
3966 5817
3966 5818
3966 5819
3967 4917
3967 4926
3967 4935
3967 5772
3967 5773
3967 5774
3968 4865
3968 4874
3968 4883
3968 5781
3968 5782
3968 5783
3969 4941
3969 4950
3969 4959
3969 5103
3969 5104
3969 5105
3970 4970
3970 4979
3970 4988
3970 5139
3970 5140
3970 5141
3971 4996
3971 5005
3971 5014
3971 5175
3971 5176
3971 5177
3972 4941
3972 4950
3972 4959
3972 5142
3972 5143
3972 5144
3973 4970
3973 4979
3973 4988
3973 5178
3973 5179
3973 5180
3974 4996
3974 5005
3974 5014
3974 5106
3974 5107
3974 5108
3975 4941
3975 4950
3975 4959
3975 5181
3975 5182
3975 5183
3976 4970
3976 4979
3976 4988
3976 5109
3976 5110
3976 5111
3977 4996
3977 5005
3977 5014
3977 5145
3977 5146
3977 5147
3978 4945
3978 4954
3978 4963
3978 5115
3978 5116
3978 5117
3979 4971
3979 4980
3979 4989
3979 5151
3979 5152
3979 5153
3980 5000
3980 5009
3980 5018
3980 5160
3980 5161
3980 5162
3981 4945
3981 4954
3981 4963
3981 5154
3981 5155
3981 5156
3982 4971
3982 4980
3982 4989
3982 5163
3982 5164
3982 5165
3983 5000
3983 5009
3983 5018
3983 5118
3983 5119
3983 5120
3984 4945
3984 4954
3984 4963
3984 5157
3984 5158
3984 5159
3985 4971
3985 4980
3985 4989
3985 5112
3985 5113
3985 5114
3986 5000
3986 5009
3986 5018
3986 5148
3986 5149
3986 5150
3987 4949
3987 4958
3987 4967
3987 5127
3987 5128
3987 5129
3988 4975
3988 4984
3988 4993
3988 5136
3988 5137
3988 5138
3989 5001
3989 5010
3989 5019
3989 5172
3989 5173
3989 5174
3990 4949
3990 4958
3990 4967
3990 5130
3990 5131
3990 5132
3991 4975
3991 4984
3991 4993
3991 5166
3991 5167
3991 5168
3992 5001
3992 5010
3992 5019
3992 5121
3992 5122
3992 5123
3993 4949
3993 4958
3993 4967
3993 5169
3993 5170
3993 5171
3994 4975
3994 4984
3994 4993
3994 5124
3994 5125
3994 5126
3995 5001
3995 5010
3995 5019
3995 5133
3995 5134
3995 5135
3996 4999
3996 5008
3996 5017
3996 5103
3996 5104
3996 5105
3997 4944
3997 4953
3997 4962
3997 5139
3997 5140
3997 5141
3998 4973
3998 4982
3998 4991
3998 5175
3998 5176
3998 5177
3999 4999
3999 5008
3999 5017
3999 5142
3999 5143
3999 5144
4000 4944
4000 4953
4000 4962
4000 5178
4000 5179
4000 5180
4001 4973
4001 4982
4001 4991
4001 5106
4001 5107
4001 5108
4002 4999
4002 5008
4002 5017
4002 5181
4002 5182
4002 5183
4003 4944
4003 4953
4003 4962
4003 5109
4003 5110
4003 5111
4004 4973
4004 4982
4004 4991
4004 5145
4004 5146
4004 5147
4005 5003
4005 5012
4005 5021
4005 5115
4005 5116
4005 5117
4006 4948
4006 4957
4006 4966
4006 5151
4006 5152
4006 5153
4007 4974
4007 4983
4007 4992
4007 5160
4007 5161
4007 5162
4008 5003
4008 5012
4008 5021
4008 5154
4008 5155
4008 5156
4009 4948
4009 4957
4009 4966
4009 5163
4009 5164
4009 5165
4010 4974
4010 4983
4010 4992
4010 5118
4010 5119
4010 5120
4011 5003
4011 5012
4011 5021
4011 5157
4011 5158
4011 5159
4012 4948
4012 4957
4012 4966
4012 5112
4012 5113
4012 5114
4013 4974
4013 4983
4013 4992
4013 5148
4013 5149
4013 5150
4014 4995
4014 5004
4014 5013
4014 5127
4014 5128
4014 5129
4015 4943
4015 4952
4015 4961
4015 5136
4015 5137
4015 5138
4016 4969
4016 4978
4016 4987
4016 5172
4016 5173
4016 5174
4017 4995
4017 5004
4017 5013
4017 5130
4017 5131
4017 5132
4018 4943
4018 4952
4018 4961
4018 5166
4018 5167
4018 5168
4019 4969
4019 4978
4019 4987
4019 5121
4019 5122
4019 5123
4020 4995
4020 5004
4020 5013
4020 5169
4020 5170
4020 5171
4021 4943
4021 4952
4021 4961
4021 5124
4021 5125
4021 5126
4022 4969
4022 4978
4022 4987
4022 5133
4022 5134
4022 5135
4023 4976
4023 4985
4023 4994
4023 5103
4023 5104
4023 5105
4024 5002
4024 5011
4024 5020
4024 5139
4024 5140
4024 5141
4025 4947
4025 4956
4025 4965
4025 5175
4025 5176
4025 5177
4026 4976
4026 4985
4026 4994
4026 5142
4026 5143
4026 5144
4027 5002
4027 5011
4027 5020
4027 5178
4027 5179
4027 5180
4028 4947
4028 4956
4028 4965
4028 5106
4028 5107
4028 5108
4029 4976
4029 4985
4029 4994
4029 5181
4029 5182
4029 5183
4030 5002
4030 5011
4030 5020
4030 5109
4030 5110
4030 5111
4031 4947
4031 4956
4031 4965
4031 5145
4031 5146
4031 5147
4032 4968
4032 4977
4032 4986
4032 5115
4032 5116
4032 5117
4033 4997
4033 5006
4033 5015
4033 5151
4033 5152
4033 5153
4034 4942
4034 4951
4034 4960
4034 5160
4034 5161
4034 5162
4035 4968
4035 4977
4035 4986
4035 5154
4035 5155
4035 5156
4036 4997
4036 5006
4036 5015
4036 5163
4036 5164
4036 5165
4037 4942
4037 4951
4037 4960
4037 5118
4037 5119
4037 5120
4038 4968
4038 4977
4038 4986
4038 5157
4038 5158
4038 5159
4039 4997
4039 5006
4039 5015
4039 5112
4039 5113
4039 5114
4040 4942
4040 4951
4040 4960
4040 5148
4040 5149
4040 5150
4041 4972
4041 4981
4041 4990
4041 5127
4041 5128
4041 5129
4042 4998
4042 5007
4042 5016
4042 5136
4042 5137
4042 5138
4043 4946
4043 4955
4043 4964
4043 5172
4043 5173
4043 5174
4044 4972
4044 4981
4044 4990
4044 5130
4044 5131
4044 5132
4045 4998
4045 5007
4045 5016
4045 5166
4045 5167
4045 5168
4046 4946
4046 4955
4046 4964
4046 5121
4046 5122
4046 5123
4047 4972
4047 4981
4047 4990
4047 5169
4047 5170
4047 5171
4048 4998
4048 5007
4048 5016
4048 5124
4048 5125
4048 5126
4049 4946
4049 4955
4049 4964
4049 5133
4049 5134
4049 5135
4050 5022
4050 5031
4050 5040
4050 5184
4050 5185
4050 5186
4051 5051
4051 5060
4051 5069
4051 5220
4051 5221
4051 5222
4052 5077
4052 5086
4052 5095
4052 5256
4052 5257
4052 5258
4053 5022
4053 5031
4053 5040
4053 5223
4053 5224
4053 5225
4054 5051
4054 5060
4054 5069
4054 5259
4054 5260
4054 5261
4055 5077
4055 5086
4055 5095
4055 5187
4055 5188
4055 5189
4056 5022
4056 5031
4056 5040
4056 5262
4056 5263
4056 5264
4057 5051
4057 5060
4057 5069
4057 5190
4057 5191
4057 5192
4058 5077
4058 5086
4058 5095
4058 5226
4058 5227
4058 5228
4059 5026
4059 5035
4059 5044
4059 5196
4059 5197
4059 5198
4060 5052
4060 5061
4060 5070
4060 5232
4060 5233
4060 5234
4061 5081
4061 5090
4061 5099
4061 5241
4061 5242
4061 5243
4062 5026
4062 5035
4062 5044
4062 5235
4062 5236
4062 5237
4063 5052
4063 5061
4063 5070
4063 5244
4063 5245
4063 5246
4064 5081
4064 5090
4064 5099
4064 5199
4064 5200
4064 5201
4065 5026
4065 5035
4065 5044
4065 5238
4065 5239
4065 5240
4066 5052
4066 5061
4066 5070
4066 5193
4066 5194
4066 5195
4067 5081
4067 5090
4067 5099
4067 5229
4067 5230
4067 5231
4068 5030
4068 5039
4068 5048
4068 5208
4068 5209
4068 5210
4069 5056
4069 5065
4069 5074
4069 5217
4069 5218
4069 5219
4070 5082
4070 5091
4070 5100
4070 5253
4070 5254
4070 5255
4071 5030
4071 5039
4071 5048
4071 5211
4071 5212
4071 5213
4072 5056
4072 5065
4072 5074
4072 5247
4072 5248
4072 5249
4073 5082
4073 5091
4073 5100
4073 5202
4073 5203
4073 5204
4074 5030
4074 5039
4074 5048
4074 5250
4074 5251
4074 5252
4075 5056
4075 5065
4075 5074
4075 5205
4075 5206
4075 5207
4076 5082
4076 5091
4076 5100
4076 5214
4076 5215
4076 5216
4077 5080
4077 5089
4077 5098
4077 5184
4077 5185
4077 5186
4078 5025
4078 5034
4078 5043
4078 5220
4078 5221
4078 5222
4079 5054
4079 5063
4079 5072
4079 5256
4079 5257
4079 5258
4080 5080
4080 5089
4080 5098
4080 5223
4080 5224
4080 5225
4081 5025
4081 5034
4081 5043
4081 5259
4081 5260
4081 5261
4082 5054
4082 5063
4082 5072
4082 5187
4082 5188
4082 5189
4083 5080
4083 5089
4083 5098
4083 5262
4083 5263
4083 5264
4084 5025
4084 5034
4084 5043
4084 5190
4084 5191
4084 5192
4085 5054
4085 5063
4085 5072
4085 5226
4085 5227
4085 5228
4086 5084
4086 5093
4086 5102
4086 5196
4086 5197
4086 5198
4087 5029
4087 5038
4087 5047
4087 5232
4087 5233
4087 5234
4088 5055
4088 5064
4088 5073
4088 5241
4088 5242
4088 5243
4089 5084
4089 5093
4089 5102
4089 5235
4089 5236
4089 5237
4090 5029
4090 5038
4090 5047
4090 5244
4090 5245
4090 5246
4091 5055
4091 5064
4091 5073
4091 5199
4091 5200
4091 5201
4092 5084
4092 5093
4092 5102
4092 5238
4092 5239
4092 5240
4093 5029
4093 5038
4093 5047
4093 5193
4093 5194
4093 5195
4094 5055
4094 5064
4094 5073
4094 5229
4094 5230
4094 5231
4095 5076
4095 5085
4095 5094
4095 5208
4095 5209
4095 5210
4096 5024
4096 5033
4096 5042
4096 5217
4096 5218
4096 5219
4097 5050
4097 5059
4097 5068
4097 5253
4097 5254
4097 5255
4098 5076
4098 5085
4098 5094
4098 5211
4098 5212
4098 5213
4099 5024
4099 5033
4099 5042
4099 5247
4099 5248
4099 5249
4100 5050
4100 5059
4100 5068
4100 5202
4100 5203
4100 5204
4101 5076
4101 5085
4101 5094
4101 5250
4101 5251
4101 5252
4102 5024
4102 5033
4102 5042
4102 5205
4102 5206
4102 5207
4103 5050
4103 5059
4103 5068
4103 5214
4103 5215
4103 5216
4104 5057
4104 5066
4104 5075
4104 5184
4104 5185
4104 5186
4105 5083
4105 5092
4105 5101
4105 5220
4105 5221
4105 5222
4106 5028
4106 5037
4106 5046
4106 5256
4106 5257
4106 5258
4107 5057
4107 5066
4107 5075
4107 5223
4107 5224
4107 5225
4108 5083
4108 5092
4108 5101
4108 5259
4108 5260
4108 5261
4109 5028
4109 5037
4109 5046
4109 5187
4109 5188
4109 5189
4110 5057
4110 5066
4110 5075
4110 5262
4110 5263
4110 5264
4111 5083
4111 5092
4111 5101
4111 5190
4111 5191
4111 5192
4112 5028
4112 5037
4112 5046
4112 5226
4112 5227
4112 5228
4113 5049
4113 5058
4113 5067
4113 5196
4113 5197
4113 5198
4114 5078
4114 5087
4114 5096
4114 5232
4114 5233
4114 5234
4115 5023
4115 5032
4115 5041
4115 5241
4115 5242
4115 5243
4116 5049
4116 5058
4116 5067
4116 5235
4116 5236
4116 5237
4117 5078
4117 5087
4117 5096
4117 5244
4117 5245
4117 5246
4118 5023
4118 5032
4118 5041
4118 5199
4118 5200
4118 5201
4119 5049
4119 5058
4119 5067
4119 5238
4119 5239
4119 5240
4120 5078
4120 5087
4120 5096
4120 5193
4120 5194
4120 5195
4121 5023
4121 5032
4121 5041
4121 5229
4121 5230
4121 5231
4122 5053
4122 5062
4122 5071
4122 5208
4122 5209
4122 5210
4123 5079
4123 5088
4123 5097
4123 5217
4123 5218
4123 5219
4124 5027
4124 5036
4124 5045
4124 5253
4124 5254
4124 5255
4125 5053
4125 5062
4125 5071
4125 5211
4125 5212
4125 5213
4126 5079
4126 5088
4126 5097
4126 5247
4126 5248
4126 5249
4127 5027
4127 5036
4127 5045
4127 5202
4127 5203
4127 5204
4128 5053
4128 5062
4128 5071
4128 5250
4128 5251
4128 5252
4129 5079
4129 5088
4129 5097
4129 5205
4129 5206
4129 5207
4130 5027
4130 5036
4130 5045
4130 5214
4130 5215
4130 5216
4131 4374
4131 4383
4131 4392
4131 5265
4131 5266
4131 5267
4132 4403
4132 4412
4132 4421
4132 5301
4132 5302
4132 5303
4133 4429
4133 4438
4133 4447
4133 5337
4133 5338
4133 5339
4134 4374
4134 4383
4134 4392
4134 5304
4134 5305
4134 5306
4135 4403
4135 4412
4135 4421
4135 5340
4135 5341
4135 5342
4136 4429
4136 4438
4136 4447
4136 5268
4136 5269
4136 5270
4137 4374
4137 4383
4137 4392
4137 5343
4137 5344
4137 5345
4138 4403
4138 4412
4138 4421
4138 5271
4138 5272
4138 5273
4139 4429
4139 4438
4139 4447
4139 5307
4139 5308
4139 5309
4140 4378
4140 4387
4140 4396
4140 5277
4140 5278
4140 5279
4141 4404
4141 4413
4141 4422
4141 5313
4141 5314
4141 5315
4142 4433
4142 4442
4142 4451
4142 5322
4142 5323
4142 5324
4143 4378
4143 4387
4143 4396
4143 5316
4143 5317
4143 5318
4144 4404
4144 4413
4144 4422
4144 5325
4144 5326
4144 5327
4145 4433
4145 4442
4145 4451
4145 5280
4145 5281
4145 5282
4146 4378
4146 4387
4146 4396
4146 5319
4146 5320
4146 5321
4147 4404
4147 4413
4147 4422
4147 5274
4147 5275
4147 5276
4148 4433
4148 4442
4148 4451
4148 5310
4148 5311
4148 5312
4149 4382
4149 4391
4149 4400
4149 5289
4149 5290
4149 5291
4150 4408
4150 4417
4150 4426
4150 5298
4150 5299
4150 5300
4151 4434
4151 4443
4151 4452
4151 5334
4151 5335
4151 5336
4152 4382
4152 4391
4152 4400
4152 5292
4152 5293
4152 5294
4153 4408
4153 4417
4153 4426
4153 5328
4153 5329
4153 5330
4154 4434
4154 4443
4154 4452
4154 5283
4154 5284
4154 5285
4155 4382
4155 4391
4155 4400
4155 5331
4155 5332
4155 5333
4156 4408
4156 4417
4156 4426
4156 5286
4156 5287
4156 5288
4157 4434
4157 4443
4157 4452
4157 5295
4157 5296
4157 5297
4158 4432
4158 4441
4158 4450
4158 5265
4158 5266
4158 5267
4159 4377
4159 4386
4159 4395
4159 5301
4159 5302
4159 5303
4160 4406
4160 4415
4160 4424
4160 5337
4160 5338
4160 5339
4161 4432
4161 4441
4161 4450
4161 5304
4161 5305
4161 5306
4162 4377
4162 4386
4162 4395
4162 5340
4162 5341
4162 5342
4163 4406
4163 4415
4163 4424
4163 5268
4163 5269
4163 5270
4164 4432
4164 4441
4164 4450
4164 5343
4164 5344
4164 5345
4165 4377
4165 4386
4165 4395
4165 5271
4165 5272
4165 5273
4166 4406
4166 4415
4166 4424
4166 5307
4166 5308
4166 5309
4167 4436
4167 4445
4167 4454
4167 5277
4167 5278
4167 5279
4168 4381
4168 4390
4168 4399
4168 5313
4168 5314
4168 5315
4169 4407
4169 4416
4169 4425
4169 5322
4169 5323
4169 5324
4170 4436
4170 4445
4170 4454
4170 5316
4170 5317
4170 5318
4171 4381
4171 4390
4171 4399
4171 5325
4171 5326
4171 5327
4172 4407
4172 4416
4172 4425
4172 5280
4172 5281
4172 5282
4173 4436
4173 4445
4173 4454
4173 5319
4173 5320
4173 5321
4174 4381
4174 4390
4174 4399
4174 5274
4174 5275
4174 5276
4175 4407
4175 4416
4175 4425
4175 5310
4175 5311
4175 5312
4176 4428
4176 4437
4176 4446
4176 5289
4176 5290
4176 5291
4177 4376
4177 4385
4177 4394
4177 5298
4177 5299
4177 5300
4178 4402
4178 4411
4178 4420
4178 5334
4178 5335
4178 5336
4179 4428
4179 4437
4179 4446
4179 5292
4179 5293
4179 5294
4180 4376
4180 4385
4180 4394
4180 5328
4180 5329
4180 5330
4181 4402
4181 4411
4181 4420
4181 5283
4181 5284
4181 5285
4182 4428
4182 4437
4182 4446
4182 5331
4182 5332
4182 5333
4183 4376
4183 4385
4183 4394
4183 5286
4183 5287
4183 5288
4184 4402
4184 4411
4184 4420
4184 5295
4184 5296
4184 5297
4185 4409
4185 4418
4185 4427
4185 5265
4185 5266
4185 5267
4186 4435
4186 4444
4186 4453
4186 5301
4186 5302
4186 5303
4187 4380
4187 4389
4187 4398
4187 5337
4187 5338
4187 5339
4188 4409
4188 4418
4188 4427
4188 5304
4188 5305
4188 5306
4189 4435
4189 4444
4189 4453
4189 5340
4189 5341
4189 5342
4190 4380
4190 4389
4190 4398
4190 5268
4190 5269
4190 5270
4191 4409
4191 4418
4191 4427
4191 5343
4191 5344
4191 5345
4192 4435
4192 4444
4192 4453
4192 5271
4192 5272
4192 5273
4193 4380
4193 4389
4193 4398
4193 5307
4193 5308
4193 5309
4194 4401
4194 4410
4194 4419
4194 5277
4194 5278
4194 5279
4195 4430
4195 4439
4195 4448
4195 5313
4195 5314
4195 5315
4196 4375
4196 4384
4196 4393
4196 5322
4196 5323
4196 5324
4197 4401
4197 4410
4197 4419
4197 5316
4197 5317
4197 5318
4198 4430
4198 4439
4198 4448
4198 5325
4198 5326
4198 5327
4199 4375
4199 4384
4199 4393
4199 5280
4199 5281
4199 5282
4200 4401
4200 4410
4200 4419
4200 5319
4200 5320
4200 5321
4201 4430
4201 4439
4201 4448
4201 5274
4201 5275
4201 5276
4202 4375
4202 4384
4202 4393
4202 5310
4202 5311
4202 5312
4203 4405
4203 4414
4203 4423
4203 5289
4203 5290
4203 5291
4204 4431
4204 4440
4204 4449
4204 5298
4204 5299
4204 5300
4205 4379
4205 4388
4205 4397
4205 5334
4205 5335
4205 5336
4206 4405
4206 4414
4206 4423
4206 5292
4206 5293
4206 5294
4207 4431
4207 4440
4207 4449
4207 5328
4207 5329
4207 5330
4208 4379
4208 4388
4208 4397
4208 5283
4208 5284
4208 5285
4209 4405
4209 4414
4209 4423
4209 5331
4209 5332
4209 5333
4210 4431
4210 4440
4210 4449
4210 5286
4210 5287
4210 5288
4211 4379
4211 4388
4211 4397
4211 5295
4211 5296
4211 5297
4212 4455
4212 4464
4212 4473
4212 5346
4212 5347
4212 5348
4213 4484
4213 4493
4213 4502
4213 5382
4213 5383
4213 5384
4214 4510
4214 4519
4214 4528
4214 5418
4214 5419
4214 5420
4215 4455
4215 4464
4215 4473
4215 5385
4215 5386
4215 5387
4216 4484
4216 4493
4216 4502
4216 5421
4216 5422
4216 5423
4217 4510
4217 4519
4217 4528
4217 5349
4217 5350
4217 5351
4218 4455
4218 4464
4218 4473
4218 5424
4218 5425
4218 5426
4219 4484
4219 4493
4219 4502
4219 5352
4219 5353
4219 5354
4220 4510
4220 4519
4220 4528
4220 5388
4220 5389
4220 5390
4221 4459
4221 4468
4221 4477
4221 5358
4221 5359
4221 5360
4222 4485
4222 4494
4222 4503
4222 5394
4222 5395
4222 5396
4223 4514
4223 4523
4223 4532
4223 5403
4223 5404
4223 5405
4224 4459
4224 4468
4224 4477
4224 5397
4224 5398
4224 5399
4225 4485
4225 4494
4225 4503
4225 5406
4225 5407
4225 5408
4226 4514
4226 4523
4226 4532
4226 5361
4226 5362
4226 5363
4227 4459
4227 4468
4227 4477
4227 5400
4227 5401
4227 5402
4228 4485
4228 4494
4228 4503
4228 5355
4228 5356
4228 5357
4229 4514
4229 4523
4229 4532
4229 5391
4229 5392
4229 5393
4230 4463
4230 4472
4230 4481
4230 5370
4230 5371
4230 5372
4231 4489
4231 4498
4231 4507
4231 5379
4231 5380
4231 5381
4232 4515
4232 4524
4232 4533
4232 5415
4232 5416
4232 5417
4233 4463
4233 4472
4233 4481
4233 5373
4233 5374
4233 5375
4234 4489
4234 4498
4234 4507
4234 5409
4234 5410
4234 5411
4235 4515
4235 4524
4235 4533
4235 5364
4235 5365
4235 5366
4236 4463
4236 4472
4236 4481
4236 5412
4236 5413
4236 5414
4237 4489
4237 4498
4237 4507
4237 5367
4237 5368
4237 5369
4238 4515
4238 4524
4238 4533
4238 5376
4238 5377
4238 5378
4239 4513
4239 4522
4239 4531
4239 5346
4239 5347
4239 5348
4240 4458
4240 4467
4240 4476
4240 5382
4240 5383
4240 5384
4241 4487
4241 4496
4241 4505
4241 5418
4241 5419
4241 5420
4242 4513
4242 4522
4242 4531
4242 5385
4242 5386
4242 5387
4243 4458
4243 4467
4243 4476
4243 5421
4243 5422
4243 5423
4244 4487
4244 4496
4244 4505
4244 5349
4244 5350
4244 5351
4245 4513
4245 4522
4245 4531
4245 5424
4245 5425
4245 5426
4246 4458
4246 4467
4246 4476
4246 5352
4246 5353
4246 5354
4247 4487
4247 4496
4247 4505
4247 5388
4247 5389
4247 5390
4248 4517
4248 4526
4248 4535
4248 5358
4248 5359
4248 5360
4249 4462
4249 4471
4249 4480
4249 5394
4249 5395
4249 5396
4250 4488
4250 4497
4250 4506
4250 5403
4250 5404
4250 5405
4251 4517
4251 4526
4251 4535
4251 5397
4251 5398
4251 5399
4252 4462
4252 4471
4252 4480
4252 5406
4252 5407
4252 5408
4253 4488
4253 4497
4253 4506
4253 5361
4253 5362
4253 5363
4254 4517
4254 4526
4254 4535
4254 5400
4254 5401
4254 5402
4255 4462
4255 4471
4255 4480
4255 5355
4255 5356
4255 5357
4256 4488
4256 4497
4256 4506
4256 5391
4256 5392
4256 5393
4257 4509
4257 4518
4257 4527
4257 5370
4257 5371
4257 5372
4258 4457
4258 4466
4258 4475
4258 5379
4258 5380
4258 5381
4259 4483
4259 4492
4259 4501
4259 5415
4259 5416
4259 5417
4260 4509
4260 4518
4260 4527
4260 5373
4260 5374
4260 5375
4261 4457
4261 4466
4261 4475
4261 5409
4261 5410
4261 5411
4262 4483
4262 4492
4262 4501
4262 5364
4262 5365
4262 5366
4263 4509
4263 4518
4263 4527
4263 5412
4263 5413
4263 5414
4264 4457
4264 4466
4264 4475
4264 5367
4264 5368
4264 5369
4265 4483
4265 4492
4265 4501
4265 5376
4265 5377
4265 5378
4266 4490
4266 4499
4266 4508
4266 5346
4266 5347
4266 5348
4267 4516
4267 4525
4267 4534
4267 5382
4267 5383
4267 5384
4268 4461
4268 4470
4268 4479
4268 5418
4268 5419
4268 5420
4269 4490
4269 4499
4269 4508
4269 5385
4269 5386
4269 5387
4270 4516
4270 4525
4270 4534
4270 5421
4270 5422
4270 5423
4271 4461
4271 4470
4271 4479
4271 5349
4271 5350
4271 5351
4272 4490
4272 4499
4272 4508
4272 5424
4272 5425
4272 5426
4273 4516
4273 4525
4273 4534
4273 5352
4273 5353
4273 5354
4274 4461
4274 4470
4274 4479
4274 5388
4274 5389
4274 5390
4275 4482
4275 4491
4275 4500
4275 5358
4275 5359
4275 5360
4276 4511
4276 4520
4276 4529
4276 5394
4276 5395
4276 5396
4277 4456
4277 4465
4277 4474
4277 5403
4277 5404
4277 5405
4278 4482
4278 4491
4278 4500
4278 5397
4278 5398
4278 5399
4279 4511
4279 4520
4279 4529
4279 5406
4279 5407
4279 5408
4280 4456
4280 4465
4280 4474
4280 5361
4280 5362
4280 5363
4281 4482
4281 4491
4281 4500
4281 5400
4281 5401
4281 5402
4282 4511
4282 4520
4282 4529
4282 5355
4282 5356
4282 5357
4283 4456
4283 4465
4283 4474
4283 5391
4283 5392
4283 5393
4284 4486
4284 4495
4284 4504
4284 5370
4284 5371
4284 5372
4285 4512
4285 4521
4285 4530
4285 5379
4285 5380
4285 5381
4286 4460
4286 4469
4286 4478
4286 5415
4286 5416
4286 5417
4287 4486
4287 4495
4287 4504
4287 5373
4287 5374
4287 5375
4288 4512
4288 4521
4288 4530
4288 5409
4288 5410
4288 5411
4289 4460
4289 4469
4289 4478
4289 5364
4289 5365
4289 5366
4290 4486
4290 4495
4290 4504
4290 5412
4290 5413
4290 5414
4291 4512
4291 4521
4291 4530
4291 5367
4291 5368
4291 5369
4292 4460
4292 4469
4292 4478
4292 5376
4292 5377
4292 5378
4293 4536
4293 4545
4293 4554
4293 5427
4293 5428
4293 5429
4294 4565
4294 4574
4294 4583
4294 5463
4294 5464
4294 5465
4295 4591
4295 4600
4295 4609
4295 5499
4295 5500
4295 5501
4296 4536
4296 4545
4296 4554
4296 5466
4296 5467
4296 5468
4297 4565
4297 4574
4297 4583
4297 5502
4297 5503
4297 5504
4298 4591
4298 4600
4298 4609
4298 5430
4298 5431
4298 5432
4299 4536
4299 4545
4299 4554
4299 5505
4299 5506
4299 5507
4300 4565
4300 4574
4300 4583
4300 5433
4300 5434
4300 5435
4301 4591
4301 4600
4301 4609
4301 5469
4301 5470
4301 5471
4302 4540
4302 4549
4302 4558
4302 5439
4302 5440
4302 5441
4303 4566
4303 4575
4303 4584
4303 5475
4303 5476
4303 5477
4304 4595
4304 4604
4304 4613
4304 5484
4304 5485
4304 5486
4305 4540
4305 4549
4305 4558
4305 5478
4305 5479
4305 5480
4306 4566
4306 4575
4306 4584
4306 5487
4306 5488
4306 5489
4307 4595
4307 4604
4307 4613
4307 5442
4307 5443
4307 5444
4308 4540
4308 4549
4308 4558
4308 5481
4308 5482
4308 5483
4309 4566
4309 4575
4309 4584
4309 5436
4309 5437
4309 5438
4310 4595
4310 4604
4310 4613
4310 5472
4310 5473
4310 5474
4311 4544
4311 4553
4311 4562
4311 5451
4311 5452
4311 5453
4312 4570
4312 4579
4312 4588
4312 5460
4312 5461
4312 5462
4313 4596
4313 4605
4313 4614
4313 5496
4313 5497
4313 5498
4314 4544
4314 4553
4314 4562
4314 5454
4314 5455
4314 5456
4315 4570
4315 4579
4315 4588
4315 5490
4315 5491
4315 5492
4316 4596
4316 4605
4316 4614
4316 5445
4316 5446
4316 5447
4317 4544
4317 4553
4317 4562
4317 5493
4317 5494
4317 5495
4318 4570
4318 4579
4318 4588
4318 5448
4318 5449
4318 5450
4319 4596
4319 4605
4319 4614
4319 5457
4319 5458
4319 5459
4320 4594
4320 4603
4320 4612
4320 5427
4320 5428
4320 5429
4321 4539
4321 4548
4321 4557
4321 5463
4321 5464
4321 5465
4322 4568
4322 4577
4322 4586
4322 5499
4322 5500
4322 5501
4323 4594
4323 4603
4323 4612
4323 5466
4323 5467
4323 5468
4324 4539
4324 4548
4324 4557
4324 5502
4324 5503
4324 5504
4325 4568
4325 4577
4325 4586
4325 5430
4325 5431
4325 5432
4326 4594
4326 4603
4326 4612
4326 5505
4326 5506
4326 5507
4327 4539
4327 4548
4327 4557
4327 5433
4327 5434
4327 5435
4328 4568
4328 4577
4328 4586
4328 5469
4328 5470
4328 5471
4329 4598
4329 4607
4329 4616
4329 5439
4329 5440
4329 5441
4330 4543
4330 4552
4330 4561
4330 5475
4330 5476
4330 5477
4331 4569
4331 4578
4331 4587
4331 5484
4331 5485
4331 5486
4332 4598
4332 4607
4332 4616
4332 5478
4332 5479
4332 5480
4333 4543
4333 4552
4333 4561
4333 5487
4333 5488
4333 5489
4334 4569
4334 4578
4334 4587
4334 5442
4334 5443
4334 5444
4335 4598
4335 4607
4335 4616
4335 5481
4335 5482
4335 5483
4336 4543
4336 4552
4336 4561
4336 5436
4336 5437
4336 5438
4337 4569
4337 4578
4337 4587
4337 5472
4337 5473
4337 5474
4338 4590
4338 4599
4338 4608
4338 5451
4338 5452
4338 5453
4339 4538
4339 4547
4339 4556
4339 5460
4339 5461
4339 5462
4340 4564
4340 4573
4340 4582
4340 5496
4340 5497
4340 5498
4341 4590
4341 4599
4341 4608
4341 5454
4341 5455
4341 5456
4342 4538
4342 4547
4342 4556
4342 5490
4342 5491
4342 5492
4343 4564
4343 4573
4343 4582
4343 5445
4343 5446
4343 5447
4344 4590
4344 4599
4344 4608
4344 5493
4344 5494
4344 5495
4345 4538
4345 4547
4345 4556
4345 5448
4345 5449
4345 5450
4346 4564
4346 4573
4346 4582
4346 5457
4346 5458
4346 5459
4347 4571
4347 4580
4347 4589
4347 5427
4347 5428
4347 5429
4348 4597
4348 4606
4348 4615
4348 5463
4348 5464
4348 5465
4349 4542
4349 4551
4349 4560
4349 5499
4349 5500
4349 5501
4350 4571
4350 4580
4350 4589
4350 5466
4350 5467
4350 5468
4351 4597
4351 4606
4351 4615
4351 5502
4351 5503
4351 5504
4352 4542
4352 4551
4352 4560
4352 5430
4352 5431
4352 5432
4353 4571
4353 4580
4353 4589
4353 5505
4353 5506
4353 5507
4354 4597
4354 4606
4354 4615
4354 5433
4354 5434
4354 5435
4355 4542
4355 4551
4355 4560
4355 5469
4355 5470
4355 5471
4356 4563
4356 4572
4356 4581
4356 5439
4356 5440
4356 5441
4357 4592
4357 4601
4357 4610
4357 5475
4357 5476
4357 5477
4358 4537
4358 4546
4358 4555
4358 5484
4358 5485
4358 5486
4359 4563
4359 4572
4359 4581
4359 5478
4359 5479
4359 5480
4360 4592
4360 4601
4360 4610
4360 5487
4360 5488
4360 5489
4361 4537
4361 4546
4361 4555
4361 5442
4361 5443
4361 5444
4362 4563
4362 4572
4362 4581
4362 5481
4362 5482
4362 5483
4363 4592
4363 4601
4363 4610
4363 5436
4363 5437
4363 5438
4364 4537
4364 4546
4364 4555
4364 5472
4364 5473
4364 5474
4365 4567
4365 4576
4365 4585
4365 5451
4365 5452
4365 5453
4366 4593
4366 4602
4366 4611
4366 5460
4366 5461
4366 5462
4367 4541
4367 4550
4367 4559
4367 5496
4367 5497
4367 5498
4368 4567
4368 4576
4368 4585
4368 5454
4368 5455
4368 5456
4369 4593
4369 4602
4369 4611
4369 5490
4369 5491
4369 5492
4370 4541
4370 4550
4370 4559
4370 5445
4370 5446
4370 5447
4371 4567
4371 4576
4371 4585
4371 5493
4371 5494
4371 5495
4372 4593
4372 4602
4372 4611
4372 5448
4372 5449
4372 5450
4373 4541
4373 4550
4373 4559
4373 5457
4373 5458
4373 5459
