1458 10935
0 513
0 516
0 519
0 648
0 653
0 655
0 729
0 738
0 747
0 1026
0 1027
0 1028
0 1053
0 1057
0 1061
1 513
1 516
1 519
1 658
1 660
1 665
1 736
1 745
1 754
1 1050
1 1051
1 1052
1 1073
1 1074
1 1078
2 513
2 516
2 519
2 668
2 670
2 672
2 734
2 743
2 752
2 1038
2 1039
2 1040
2 1063
2 1067
2 1068
3 523
3 526
3 529
3 668
3 670
3 672
3 737
3 746
3 755
3 1026
3 1027
3 1028
3 1073
3 1074
3 1078
4 523
4 526
4 529
4 648
4 653
4 655
4 732
4 741
4 750
4 1050
4 1051
4 1052
4 1063
4 1067
4 1068
5 523
5 526
5 529
5 658
5 660
5 665
5 730
5 739
5 748
5 1038
5 1039
5 1040
5 1053
5 1057
5 1061
6 533
6 536
6 539
6 658
6 660
6 665
6 733
6 742
6 751
6 1026
6 1027
6 1028
6 1063
6 1067
6 1068
7 533
7 536
7 539
7 668
7 670
7 672
7 731
7 740
7 749
7 1050
7 1051
7 1052
7 1053
7 1057
7 1061
8 533
8 536
8 539
8 648
8 653
8 655
8 735
8 744
8 753
8 1038
8 1039
8 1040
8 1073
8 1074
8 1078
9 532
9 535
9 538
9 667
9 669
9 674
9 729
9 738
9 747
9 1041
9 1042
9 1043
9 1064
9 1065
9 1069
10 532
10 535
10 538
10 650
10 652
10 654
10 736
10 745
10 754
10 1029
10 1030
10 1031
10 1054
10 1058
10 1059
11 532
11 535
11 538
11 657
11 662
11 664
11 734
11 743
11 752
11 1044
11 1045
11 1046
11 1071
11 1075
11 1079
12 515
12 518
12 521
12 657
12 662
12 664
12 737
12 746
12 755
12 1041
12 1042
12 1043
12 1054
12 1058
12 1059
13 515
13 518
13 521
13 667
13 669
13 674
13 732
13 741
13 750
13 1029
13 1030
13 1031
13 1071
13 1075
13 1079
14 515
14 518
14 521
14 650
14 652
14 654
14 730
14 739
14 748
14 1044
14 1045
14 1046
14 1064
14 1065
14 1069
15 522
15 525
15 528
15 650
15 652
15 654
15 733
15 742
15 751
15 1041
15 1042
15 1043
15 1071
15 1075
15 1079
16 522
16 525
16 528
16 657
16 662
16 664
16 731
16 740
16 749
16 1029
16 1030
16 1031
16 1064
16 1065
16 1069
17 522
17 525
17 528
17 667
17 669
17 674
17 735
17 744
17 753
17 1044
17 1045
17 1046
17 1054
17 1058
17 1059
18 524
18 527
18 530
18 659
18 661
18 663
18 729
18 738
18 747
18 1047
18 1048
18 1049
18 1072
18 1076
18 1077
19 524
19 527
19 530
19 666
19 671
19 673
19 736
19 745
19 754
19 1035
19 1036
19 1037
19 1062
19 1066
19 1070
20 524
20 527
20 530
20 649
20 651
20 656
20 734
20 743
20 752
20 1032
20 1033
20 1034
20 1055
20 1056
20 1060
21 531
21 534
21 537
21 649
21 651
21 656
21 737
21 746
21 755
21 1047
21 1048
21 1049
21 1062
21 1066
21 1070
22 531
22 534
22 537
22 659
22 661
22 663
22 732
22 741
22 750
22 1035
22 1036
22 1037
22 1055
22 1056
22 1060
23 531
23 534
23 537
23 666
23 671
23 673
23 730
23 739
23 748
23 1032
23 1033
23 1034
23 1072
23 1076
23 1077
24 514
24 517
24 520
24 666
24 671
24 673
24 733
24 742
24 751
24 1047
24 1048
24 1049
24 1055
24 1056
24 1060
25 514
25 517
25 520
25 649
25 651
25 656
25 731
25 740
25 749
25 1035
25 1036
25 1037
25 1072
25 1076
25 1077
26 514
26 517
26 520
26 659
26 661
26 663
26 735
26 744
26 753
26 1032
26 1033
26 1034
26 1062
26 1066
26 1070
27 540
27 543
27 546
27 675
27 680
27 682
27 756
27 765
27 774
27 1053
27 1054
27 1055
27 1080
27 1084
27 1088
28 540
28 543
28 546
28 685
28 687
28 692
28 763
28 772
28 781
28 1077
28 1078
28 1079
28 1100
28 1101
28 1105
29 540
29 543
29 546
29 695
29 697
29 699
29 761
29 770
29 779
29 1065
29 1066
29 1067
29 1090
29 1094
29 1095
30 550
30 553
30 556
30 695
30 697
30 699
30 764
30 773
30 782
30 1053
30 1054
30 1055
30 1100
30 1101
30 1105
31 550
31 553
31 556
31 675
31 680
31 682
31 759
31 768
31 777
31 1077
31 1078
31 1079
31 1090
31 1094
31 1095
32 550
32 553
32 556
32 685
32 687
32 692
32 757
32 766
32 775
32 1065
32 1066
32 1067
32 1080
32 1084
32 1088
33 560
33 563
33 566
33 685
33 687
33 692
33 760
33 769
33 778
33 1053
33 1054
33 1055
33 1090
33 1094
33 1095
34 560
34 563
34 566
34 695
34 697
34 699
34 758
34 767
34 776
34 1077
34 1078
34 1079
34 1080
34 1084
34 1088
35 560
35 563
35 566
35 675
35 680
35 682
35 762
35 771
35 780
35 1065
35 1066
35 1067
35 1100
35 1101
35 1105
36 559
36 562
36 565
36 694
36 696
36 701
36 756
36 765
36 774
36 1068
36 1069
36 1070
36 1091
36 1092
36 1096
37 559
37 562
37 565
37 677
37 679
37 681
37 763
37 772
37 781
37 1056
37 1057
37 1058
37 1081
37 1085
37 1086
38 559
38 562
38 565
38 684
38 689
38 691
38 761
38 770
38 779
38 1071
38 1072
38 1073
38 1098
38 1102
38 1106
39 542
39 545
39 548
39 684
39 689
39 691
39 764
39 773
39 782
39 1068
39 1069
39 1070
39 1081
39 1085
39 1086
40 542
40 545
40 548
40 694
40 696
40 701
40 759
40 768
40 777
40 1056
40 1057
40 1058
40 1098
40 1102
40 1106
41 542
41 545
41 548
41 677
41 679
41 681
41 757
41 766
41 775
41 1071
41 1072
41 1073
41 1091
41 1092
41 1096
42 549
42 552
42 555
42 677
42 679
42 681
42 760
42 769
42 778
42 1068
42 1069
42 1070
42 1098
42 1102
42 1106
43 549
43 552
43 555
43 684
43 689
43 691
43 758
43 767
43 776
43 1056
43 1057
43 1058
43 1091
43 1092
43 1096
44 549
44 552
44 555
44 694
44 696
44 701
44 762
44 771
44 780
44 1071
44 1072
44 1073
44 1081
44 1085
44 1086
45 551
45 554
45 557
45 686
45 688
45 690
45 756
45 765
45 774
45 1074
45 1075
45 1076
45 1099
45 1103
45 1104
46 551
46 554
46 557
46 693
46 698
46 700
46 763
46 772
46 781
46 1062
46 1063
46 1064
46 1089
46 1093
46 1097
47 551
47 554
47 557
47 676
47 678
47 683
47 761
47 770
47 779
47 1059
47 1060
47 1061
47 1082
47 1083
47 1087
48 558
48 561
48 564
48 676
48 678
48 683
48 764
48 773
48 782
48 1074
48 1075
48 1076
48 1089
48 1093
48 1097
49 558
49 561
49 564
49 686
49 688
49 690
49 759
49 768
49 777
49 1062
49 1063
49 1064
49 1082
49 1083
49 1087
50 558
50 561
50 564
50 693
50 698
50 700
50 757
50 766
50 775
50 1059
50 1060
50 1061
50 1099
50 1103
50 1104
51 541
51 544
51 547
51 693
51 698
51 700
51 760
51 769
51 778
51 1074
51 1075
51 1076
51 1082
51 1083
51 1087
52 541
52 544
52 547
52 676
52 678
52 683
52 758
52 767
52 776
52 1062
52 1063
52 1064
52 1099
52 1103
52 1104
53 541
53 544
53 547
53 686
53 688
53 690
53 762
53 771
53 780
53 1059
53 1060
53 1061
53 1089
53 1093
53 1097
54 567
54 570
54 573
54 702
54 707
54 709
54 783
54 792
54 801
54 1080
54 1081
54 1082
54 1107
54 1111
54 1115
55 567
55 570
55 573
55 712
55 714
55 719
55 790
55 799
55 808
55 1104
55 1105
55 1106
55 1127
55 1128
55 1132
56 567
56 570
56 573
56 722
56 724
56 726
56 788
56 797
56 806
56 1092
56 1093
56 1094
56 1117
56 1121
56 1122
57 577
57 580
57 583
57 722
57 724
57 726
57 791
57 800
57 809
57 1080
57 1081
57 1082
57 1127
57 1128
57 1132
58 577
58 580
58 583
58 702
58 707
58 709
58 786
58 795
58 804
58 1104
58 1105
58 1106
58 1117
58 1121
58 1122
59 577
59 580
59 583
59 712
59 714
59 719
59 784
59 793
59 802
59 1092
59 1093
59 1094
59 1107
59 1111
59 1115
60 587
60 590
60 593
60 712
60 714
60 719
60 787
60 796
60 805
60 1080
60 1081
60 1082
60 1117
60 1121
60 1122
61 587
61 590
61 593
61 722
61 724
61 726
61 785
61 794
61 803
61 1104
61 1105
61 1106
61 1107
61 1111
61 1115
62 587
62 590
62 593
62 702
62 707
62 709
62 789
62 798
62 807
62 1092
62 1093
62 1094
62 1127
62 1128
62 1132
63 586
63 589
63 592
63 721
63 723
63 728
63 783
63 792
63 801
63 1095
63 1096
63 1097
63 1118
63 1119
63 1123
64 586
64 589
64 592
64 704
64 706
64 708
64 790
64 799
64 808
64 1083
64 1084
64 1085
64 1108
64 1112
64 1113
65 586
65 589
65 592
65 711
65 716
65 718
65 788
65 797
65 806
65 1098
65 1099
65 1100
65 1125
65 1129
65 1133
66 569
66 572
66 575
66 711
66 716
66 718
66 791
66 800
66 809
66 1095
66 1096
66 1097
66 1108
66 1112
66 1113
67 569
67 572
67 575
67 721
67 723
67 728
67 786
67 795
67 804
67 1083
67 1084
67 1085
67 1125
67 1129
67 1133
68 569
68 572
68 575
68 704
68 706
68 708
68 784
68 793
68 802
68 1098
68 1099
68 1100
68 1118
68 1119
68 1123
69 576
69 579
69 582
69 704
69 706
69 708
69 787
69 796
69 805
69 1095
69 1096
69 1097
69 1125
69 1129
69 1133
70 576
70 579
70 582
70 711
70 716
70 718
70 785
70 794
70 803
70 1083
70 1084
70 1085
70 1118
70 1119
70 1123
71 576
71 579
71 582
71 721
71 723
71 728
71 789
71 798
71 807
71 1098
71 1099
71 1100
71 1108
71 1112
71 1113
72 578
72 581
72 584
72 713
72 715
72 717
72 783
72 792
72 801
72 1101
72 1102
72 1103
72 1126
72 1130
72 1131
73 578
73 581
73 584
73 720
73 725
73 727
73 790
73 799
73 808
73 1089
73 1090
73 1091
73 1116
73 1120
73 1124
74 578
74 581
74 584
74 703
74 705
74 710
74 788
74 797
74 806
74 1086
74 1087
74 1088
74 1109
74 1110
74 1114
75 585
75 588
75 591
75 703
75 705
75 710
75 791
75 800
75 809
75 1101
75 1102
75 1103
75 1116
75 1120
75 1124
76 585
76 588
76 591
76 713
76 715
76 717
76 786
76 795
76 804
76 1089
76 1090
76 1091
76 1109
76 1110
76 1114
77 585
77 588
77 591
77 720
77 725
77 727
77 784
77 793
77 802
77 1086
77 1087
77 1088
77 1126
77 1130
77 1131
78 568
78 571
78 574
78 720
78 725
78 727
78 787
78 796
78 805
78 1101
78 1102
78 1103
78 1109
78 1110
78 1114
79 568
79 571
79 574
79 703
79 705
79 710
79 785
79 794
79 803
79 1089
79 1090
79 1091
79 1126
79 1130
79 1131
80 568
80 571
80 574
80 713
80 715
80 717
80 789
80 798
80 807
80 1086
80 1087
80 1088
80 1116
80 1120
80 1124
81 486
81 491
81 493
81 594
81 597
81 600
81 810
81 819
81 828
81 1107
81 1108
81 1109
81 1134
81 1138
81 1142
82 496
82 498
82 503
82 594
82 597
82 600
82 817
82 826
82 835
82 1131
82 1132
82 1133
82 1154
82 1155
82 1159
83 506
83 508
83 510
83 594
83 597
83 600
83 815
83 824
83 833
83 1119
83 1120
83 1121
83 1144
83 1148
83 1149
84 506
84 508
84 510
84 604
84 607
84 610
84 818
84 827
84 836
84 1107
84 1108
84 1109
84 1154
84 1155
84 1159
85 486
85 491
85 493
85 604
85 607
85 610
85 813
85 822
85 831
85 1131
85 1132
85 1133
85 1144
85 1148
85 1149
86 496
86 498
86 503
86 604
86 607
86 610
86 811
86 820
86 829
86 1119
86 1120
86 1121
86 1134
86 1138
86 1142
87 496
87 498
87 503
87 614
87 617
87 620
87 814
87 823
87 832
87 1107
87 1108
87 1109
87 1144
87 1148
87 1149
88 506
88 508
88 510
88 614
88 617
88 620
88 812
88 821
88 830
88 1131
88 1132
88 1133
88 1134
88 1138
88 1142
89 486
89 491
89 493
89 614
89 617
89 620
89 816
89 825
89 834
89 1119
89 1120
89 1121
89 1154
89 1155
89 1159
90 505
90 507
90 512
90 613
90 616
90 619
90 810
90 819
90 828
90 1122
90 1123
90 1124
90 1145
90 1146
90 1150
91 488
91 490
91 492
91 613
91 616
91 619
91 817
91 826
91 835
91 1110
91 1111
91 1112
91 1135
91 1139
91 1140
92 495
92 500
92 502
92 613
92 616
92 619
92 815
92 824
92 833
92 1125
92 1126
92 1127
92 1152
92 1156
92 1160
93 495
93 500
93 502
93 596
93 599
93 602
93 818
93 827
93 836
93 1122
93 1123
93 1124
93 1135
93 1139
93 1140
94 505
94 507
94 512
94 596
94 599
94 602
94 813
94 822
94 831
94 1110
94 1111
94 1112
94 1152
94 1156
94 1160
95 488
95 490
95 492
95 596
95 599
95 602
95 811
95 820
95 829
95 1125
95 1126
95 1127
95 1145
95 1146
95 1150
96 488
96 490
96 492
96 603
96 606
96 609
96 814
96 823
96 832
96 1122
96 1123
96 1124
96 1152
96 1156
96 1160
97 495
97 500
97 502
97 603
97 606
97 609
97 812
97 821
97 830
97 1110
97 1111
97 1112
97 1145
97 1146
97 1150
98 505
98 507
98 512
98 603
98 606
98 609
98 816
98 825
98 834
98 1125
98 1126
98 1127
98 1135
98 1139
98 1140
99 497
99 499
99 501
99 605
99 608
99 611
99 810
99 819
99 828
99 1128
99 1129
99 1130
99 1153
99 1157
99 1158
100 504
100 509
100 511
100 605
100 608
100 611
100 817
100 826
100 835
100 1116
100 1117
100 1118
100 1143
100 1147
100 1151
101 487
101 489
101 494
101 605
101 608
101 611
101 815
101 824
101 833
101 1113
101 1114
101 1115
101 1136
101 1137
101 1141
102 487
102 489
102 494
102 612
102 615
102 618
102 818
102 827
102 836
102 1128
102 1129
102 1130
102 1143
102 1147
102 1151
103 497
103 499
103 501
103 612
103 615
103 618
103 813
103 822
103 831
103 1116
103 1117
103 1118
103 1136
103 1137
103 1141
104 504
104 509
104 511
104 612
104 615
104 618
104 811
104 820
104 829
104 1113
104 1114
104 1115
104 1153
104 1157
104 1158
105 504
105 509
105 511
105 595
105 598
105 601
105 814
105 823
105 832
105 1128
105 1129
105 1130
105 1136
105 1137
105 1141
106 487
106 489
106 494
106 595
106 598
106 601
106 812
106 821
106 830
106 1116
106 1117
106 1118
106 1153
106 1157
106 1158
107 497
107 499
107 501
107 595
107 598
107 601
107 816
107 825
107 834
107 1113
107 1114
107 1115
107 1143
107 1147
107 1151
108 513
108 518
108 520
108 621
108 624
108 627
108 837
108 846
108 855
108 1134
108 1135
108 1136
108 1161
108 1165
108 1169
109 523
109 525
109 530
109 621
109 624
109 627
109 844
109 853
109 862
109 1158
109 1159
109 1160
109 1181
109 1182
109 1186
110 533
110 535
110 537
110 621
110 624
110 627
110 842
110 851
110 860
110 1146
110 1147
110 1148
110 1171
110 1175
110 1176
111 533
111 535
111 537
111 631
111 634
111 637
111 845
111 854
111 863
111 1134
111 1135
111 1136
111 1181
111 1182
111 1186
112 513
112 518
112 520
112 631
112 634
112 637
112 840
112 849
112 858
112 1158
112 1159
112 1160
112 1171
112 1175
112 1176
113 523
113 525
113 530
113 631
113 634
113 637
113 838
113 847
113 856
113 1146
113 1147
113 1148
113 1161
113 1165
113 1169
114 523
114 525
114 530
114 641
114 644
114 647
114 841
114 850
114 859
114 1134
114 1135
114 1136
114 1171
114 1175
114 1176
115 533
115 535
115 537
115 641
115 644
115 647
115 839
115 848
115 857
115 1158
115 1159
115 1160
115 1161
115 1165
115 1169
116 513
116 518
116 520
116 641
116 644
116 647
116 843
116 852
116 861
116 1146
116 1147
116 1148
116 1181
116 1182
116 1186
117 532
117 534
117 539
117 640
117 643
117 646
117 837
117 846
117 855
117 1149
117 1150
117 1151
117 1172
117 1173
117 1177
118 515
118 517
118 519
118 640
118 643
118 646
118 844
118 853
118 862
118 1137
118 1138
118 1139
118 1162
118 1166
118 1167
119 522
119 527
119 529
119 640
119 643
119 646
119 842
119 851
119 860
119 1152
119 1153
119 1154
119 1179
119 1183
119 1187
120 522
120 527
120 529
120 623
120 626
120 629
120 845
120 854
120 863
120 1149
120 1150
120 1151
120 1162
120 1166
120 1167
121 532
121 534
121 539
121 623
121 626
121 629
121 840
121 849
121 858
121 1137
121 1138
121 1139
121 1179
121 1183
121 1187
122 515
122 517
122 519
122 623
122 626
122 629
122 838
122 847
122 856
122 1152
122 1153
122 1154
122 1172
122 1173
122 1177
123 515
123 517
123 519
123 630
123 633
123 636
123 841
123 850
123 859
123 1149
123 1150
123 1151
123 1179
123 1183
123 1187
124 522
124 527
124 529
124 630
124 633
124 636
124 839
124 848
124 857
124 1137
124 1138
124 1139
124 1172
124 1173
124 1177
125 532
125 534
125 539
125 630
125 633
125 636
125 843
125 852
125 861
125 1152
125 1153
125 1154
125 1162
125 1166
125 1167
126 524
126 526
126 528
126 632
126 635
126 638
126 837
126 846
126 855
126 1155
126 1156
126 1157
126 1180
126 1184
126 1185
127 531
127 536
127 538
127 632
127 635
127 638
127 844
127 853
127 862
127 1143
127 1144
127 1145
127 1170
127 1174
127 1178
128 514
128 516
128 521
128 632
128 635
128 638
128 842
128 851
128 860
128 1140
128 1141
128 1142
128 1163
128 1164
128 1168
129 514
129 516
129 521
129 639
129 642
129 645
129 845
129 854
129 863
129 1155
129 1156
129 1157
129 1170
129 1174
129 1178
130 524
130 526
130 528
130 639
130 642
130 645
130 840
130 849
130 858
130 1143
130 1144
130 1145
130 1163
130 1164
130 1168
131 531
131 536
131 538
131 639
131 642
131 645
131 838
131 847
131 856
131 1140
131 1141
131 1142
131 1180
131 1184
131 1185
132 531
132 536
132 538
132 622
132 625
132 628
132 841
132 850
132 859
132 1155
132 1156
132 1157
132 1163
132 1164
132 1168
133 514
133 516
133 521
133 622
133 625
133 628
133 839
133 848
133 857
133 1143
133 1144
133 1145
133 1180
133 1184
133 1185
134 524
134 526
134 528
134 622
134 625
134 628
134 843
134 852
134 861
134 1140
134 1141
134 1142
134 1170
134 1174
134 1178
135 540
135 545
135 547
135 648
135 651
135 654
135 864
135 873
135 882
135 1161
135 1162
135 1163
135 1188
135 1192
135 1196
136 550
136 552
136 557
136 648
136 651
136 654
136 871
136 880
136 889
136 1185
136 1186
136 1187
136 1208
136 1209
136 1213
137 560
137 562
137 564
137 648
137 651
137 654
137 869
137 878
137 887
137 1173
137 1174
137 1175
137 1198
137 1202
137 1203
138 560
138 562
138 564
138 658
138 661
138 664
138 872
138 881
138 890
138 1161
138 1162
138 1163
138 1208
138 1209
138 1213
139 540
139 545
139 547
139 658
139 661
139 664
139 867
139 876
139 885
139 1185
139 1186
139 1187
139 1198
139 1202
139 1203
140 550
140 552
140 557
140 658
140 661
140 664
140 865
140 874
140 883
140 1173
140 1174
140 1175
140 1188
140 1192
140 1196
141 550
141 552
141 557
141 668
141 671
141 674
141 868
141 877
141 886
141 1161
141 1162
141 1163
141 1198
141 1202
141 1203
142 560
142 562
142 564
142 668
142 671
142 674
142 866
142 875
142 884
142 1185
142 1186
142 1187
142 1188
142 1192
142 1196
143 540
143 545
143 547
143 668
143 671
143 674
143 870
143 879
143 888
143 1173
143 1174
143 1175
143 1208
143 1209
143 1213
144 559
144 561
144 566
144 667
144 670
144 673
144 864
144 873
144 882
144 1176
144 1177
144 1178
144 1199
144 1200
144 1204
145 542
145 544
145 546
145 667
145 670
145 673
145 871
145 880
145 889
145 1164
145 1165
145 1166
145 1189
145 1193
145 1194
146 549
146 554
146 556
146 667
146 670
146 673
146 869
146 878
146 887
146 1179
146 1180
146 1181
146 1206
146 1210
146 1214
147 549
147 554
147 556
147 650
147 653
147 656
147 872
147 881
147 890
147 1176
147 1177
147 1178
147 1189
147 1193
147 1194
148 559
148 561
148 566
148 650
148 653
148 656
148 867
148 876
148 885
148 1164
148 1165
148 1166
148 1206
148 1210
148 1214
149 542
149 544
149 546
149 650
149 653
149 656
149 865
149 874
149 883
149 1179
149 1180
149 1181
149 1199
149 1200
149 1204
150 542
150 544
150 546
150 657
150 660
150 663
150 868
150 877
150 886
150 1176
150 1177
150 1178
150 1206
150 1210
150 1214
151 549
151 554
151 556
151 657
151 660
151 663
151 866
151 875
151 884
151 1164
151 1165
151 1166
151 1199
151 1200
151 1204
152 559
152 561
152 566
152 657
152 660
152 663
152 870
152 879
152 888
152 1179
152 1180
152 1181
152 1189
152 1193
152 1194
153 551
153 553
153 555
153 659
153 662
153 665
153 864
153 873
153 882
153 1182
153 1183
153 1184
153 1207
153 1211
153 1212
154 558
154 563
154 565
154 659
154 662
154 665
154 871
154 880
154 889
154 1170
154 1171
154 1172
154 1197
154 1201
154 1205
155 541
155 543
155 548
155 659
155 662
155 665
155 869
155 878
155 887
155 1167
155 1168
155 1169
155 1190
155 1191
155 1195
156 541
156 543
156 548
156 666
156 669
156 672
156 872
156 881
156 890
156 1182
156 1183
156 1184
156 1197
156 1201
156 1205
157 551
157 553
157 555
157 666
157 669
157 672
157 867
157 876
157 885
157 1170
157 1171
157 1172
157 1190
157 1191
157 1195
158 558
158 563
158 565
158 666
158 669
158 672
158 865
158 874
158 883
158 1167
158 1168
158 1169
158 1207
158 1211
158 1212
159 558
159 563
159 565
159 649
159 652
159 655
159 868
159 877
159 886
159 1182
159 1183
159 1184
159 1190
159 1191
159 1195
160 541
160 543
160 548
160 649
160 652
160 655
160 866
160 875
160 884
160 1170
160 1171
160 1172
160 1207
160 1211
160 1212
161 551
161 553
161 555
161 649
161 652
161 655
161 870
161 879
161 888
161 1167
161 1168
161 1169
161 1197
161 1201
161 1205
162 567
162 572
162 574
162 675
162 678
162 681
162 891
162 900
162 909
162 972
162 976
162 980
162 1188
162 1189
162 1190
163 577
163 579
163 584
163 675
163 678
163 681
163 898
163 907
163 916
163 992
163 993
163 997
163 1212
163 1213
163 1214
164 587
164 589
164 591
164 675
164 678
164 681
164 896
164 905
164 914
164 982
164 986
164 987
164 1200
164 1201
164 1202
165 587
165 589
165 591
165 685
165 688
165 691
165 899
165 908
165 917
165 992
165 993
165 997
165 1188
165 1189
165 1190
166 567
166 572
166 574
166 685
166 688
166 691
166 894
166 903
166 912
166 982
166 986
166 987
166 1212
166 1213
166 1214
167 577
167 579
167 584
167 685
167 688
167 691
167 892
167 901
167 910
167 972
167 976
167 980
167 1200
167 1201
167 1202
168 577
168 579
168 584
168 695
168 698
168 701
168 895
168 904
168 913
168 982
168 986
168 987
168 1188
168 1189
168 1190
169 587
169 589
169 591
169 695
169 698
169 701
169 893
169 902
169 911
169 972
169 976
169 980
169 1212
169 1213
169 1214
170 567
170 572
170 574
170 695
170 698
170 701
170 897
170 906
170 915
170 992
170 993
170 997
170 1200
170 1201
170 1202
171 586
171 588
171 593
171 694
171 697
171 700
171 891
171 900
171 909
171 983
171 984
171 988
171 1203
171 1204
171 1205
172 569
172 571
172 573
172 694
172 697
172 700
172 898
172 907
172 916
172 973
172 977
172 978
172 1191
172 1192
172 1193
173 576
173 581
173 583
173 694
173 697
173 700
173 896
173 905
173 914
173 990
173 994
173 998
173 1206
173 1207
173 1208
174 576
174 581
174 583
174 677
174 680
174 683
174 899
174 908
174 917
174 973
174 977
174 978
174 1203
174 1204
174 1205
175 586
175 588
175 593
175 677
175 680
175 683
175 894
175 903
175 912
175 990
175 994
175 998
175 1191
175 1192
175 1193
176 569
176 571
176 573
176 677
176 680
176 683
176 892
176 901
176 910
176 983
176 984
176 988
176 1206
176 1207
176 1208
177 569
177 571
177 573
177 684
177 687
177 690
177 895
177 904
177 913
177 990
177 994
177 998
177 1203
177 1204
177 1205
178 576
178 581
178 583
178 684
178 687
178 690
178 893
178 902
178 911
178 983
178 984
178 988
178 1191
178 1192
178 1193
179 586
179 588
179 593
179 684
179 687
179 690
179 897
179 906
179 915
179 973
179 977
179 978
179 1206
179 1207
179 1208
180 578
180 580
180 582
180 686
180 689
180 692
180 891
180 900
180 909
180 991
180 995
180 996
180 1209
180 1210
180 1211
181 585
181 590
181 592
181 686
181 689
181 692
181 898
181 907
181 916
181 981
181 985
181 989
181 1197
181 1198
181 1199
182 568
182 570
182 575
182 686
182 689
182 692
182 896
182 905
182 914
182 974
182 975
182 979
182 1194
182 1195
182 1196
183 568
183 570
183 575
183 693
183 696
183 699
183 899
183 908
183 917
183 981
183 985
183 989
183 1209
183 1210
183 1211
184 578
184 580
184 582
184 693
184 696
184 699
184 894
184 903
184 912
184 974
184 975
184 979
184 1197
184 1198
184 1199
185 585
185 590
185 592
185 693
185 696
185 699
185 892
185 901
185 910
185 991
185 995
185 996
185 1194
185 1195
185 1196
186 585
186 590
186 592
186 676
186 679
186 682
186 895
186 904
186 913
186 974
186 975
186 979
186 1209
186 1210
186 1211
187 568
187 570
187 575
187 676
187 679
187 682
187 893
187 902
187 911
187 991
187 995
187 996
187 1197
187 1198
187 1199
188 578
188 580
188 582
188 676
188 679
188 682
188 897
188 906
188 915
188 981
188 985
188 989
188 1194
188 1195
188 1196
189 594
189 599
189 601
189 702
189 705
189 708
189 918
189 927
189 936
189 972
189 973
189 974
189 999
189 1003
189 1007
190 604
190 606
190 611
190 702
190 705
190 708
190 925
190 934
190 943
190 996
190 997
190 998
190 1019
190 1020
190 1024
191 614
191 616
191 618
191 702
191 705
191 708
191 923
191 932
191 941
191 984
191 985
191 986
191 1009
191 1013
191 1014
192 614
192 616
192 618
192 712
192 715
192 718
192 926
192 935
192 944
192 972
192 973
192 974
192 1019
192 1020
192 1024
193 594
193 599
193 601
193 712
193 715
193 718
193 921
193 930
193 939
193 996
193 997
193 998
193 1009
193 1013
193 1014
194 604
194 606
194 611
194 712
194 715
194 718
194 919
194 928
194 937
194 984
194 985
194 986
194 999
194 1003
194 1007
195 604
195 606
195 611
195 722
195 725
195 728
195 922
195 931
195 940
195 972
195 973
195 974
195 1009
195 1013
195 1014
196 614
196 616
196 618
196 722
196 725
196 728
196 920
196 929
196 938
196 996
196 997
196 998
196 999
196 1003
196 1007
197 594
197 599
197 601
197 722
197 725
197 728
197 924
197 933
197 942
197 984
197 985
197 986
197 1019
197 1020
197 1024
198 613
198 615
198 620
198 721
198 724
198 727
198 918
198 927
198 936
198 987
198 988
198 989
198 1010
198 1011
198 1015
199 596
199 598
199 600
199 721
199 724
199 727
199 925
199 934
199 943
199 975
199 976
199 977
199 1000
199 1004
199 1005
200 603
200 608
200 610
200 721
200 724
200 727
200 923
200 932
200 941
200 990
200 991
200 992
200 1017
200 1021
200 1025
201 603
201 608
201 610
201 704
201 707
201 710
201 926
201 935
201 944
201 987
201 988
201 989
201 1000
201 1004
201 1005
202 613
202 615
202 620
202 704
202 707
202 710
202 921
202 930
202 939
202 975
202 976
202 977
202 1017
202 1021
202 1025
203 596
203 598
203 600
203 704
203 707
203 710
203 919
203 928
203 937
203 990
203 991
203 992
203 1010
203 1011
203 1015
204 596
204 598
204 600
204 711
204 714
204 717
204 922
204 931
204 940
204 987
204 988
204 989
204 1017
204 1021
204 1025
205 603
205 608
205 610
205 711
205 714
205 717
205 920
205 929
205 938
205 975
205 976
205 977
205 1010
205 1011
205 1015
206 613
206 615
206 620
206 711
206 714
206 717
206 924
206 933
206 942
206 990
206 991
206 992
206 1000
206 1004
206 1005
207 605
207 607
207 609
207 713
207 716
207 719
207 918
207 927
207 936
207 993
207 994
207 995
207 1018
207 1022
207 1023
208 612
208 617
208 619
208 713
208 716
208 719
208 925
208 934
208 943
208 981
208 982
208 983
208 1008
208 1012
208 1016
209 595
209 597
209 602
209 713
209 716
209 719
209 923
209 932
209 941
209 978
209 979
209 980
209 1001
209 1002
209 1006
210 595
210 597
210 602
210 720
210 723
210 726
210 926
210 935
210 944
210 993
210 994
210 995
210 1008
210 1012
210 1016
211 605
211 607
211 609
211 720
211 723
211 726
211 921
211 930
211 939
211 981
211 982
211 983
211 1001
211 1002
211 1006
212 612
212 617
212 619
212 720
212 723
212 726
212 919
212 928
212 937
212 978
212 979
212 980
212 1018
212 1022
212 1023
213 612
213 617
213 619
213 703
213 706
213 709
213 922
213 931
213 940
213 993
213 994
213 995
213 1001
213 1002
213 1006
214 595
214 597
214 602
214 703
214 706
214 709
214 920
214 929
214 938
214 981
214 982
214 983
214 1018
214 1022
214 1023
215 605
215 607
215 609
215 703
215 706
215 709
215 924
215 933
215 942
215 978
215 979
215 980
215 1008
215 1012
215 1016
216 486
216 489
216 492
216 621
216 626
216 628
216 945
216 954
216 963
216 999
216 1000
216 1001
216 1026
216 1030
216 1034
217 486
217 489
217 492
217 631
217 633
217 638
217 952
217 961
217 970
217 1023
217 1024
217 1025
217 1046
217 1047
217 1051
218 486
218 489
218 492
218 641
218 643
218 645
218 950
218 959
218 968
218 1011
218 1012
218 1013
218 1036
218 1040
218 1041
219 496
219 499
219 502
219 641
219 643
219 645
219 953
219 962
219 971
219 999
219 1000
219 1001
219 1046
219 1047
219 1051
220 496
220 499
220 502
220 621
220 626
220 628
220 948
220 957
220 966
220 1023
220 1024
220 1025
220 1036
220 1040
220 1041
221 496
221 499
221 502
221 631
221 633
221 638
221 946
221 955
221 964
221 1011
221 1012
221 1013
221 1026
221 1030
221 1034
222 506
222 509
222 512
222 631
222 633
222 638
222 949
222 958
222 967
222 999
222 1000
222 1001
222 1036
222 1040
222 1041
223 506
223 509
223 512
223 641
223 643
223 645
223 947
223 956
223 965
223 1023
223 1024
223 1025
223 1026
223 1030
223 1034
224 506
224 509
224 512
224 621
224 626
224 628
224 951
224 960
224 969
224 1011
224 1012
224 1013
224 1046
224 1047
224 1051
225 505
225 508
225 511
225 640
225 642
225 647
225 945
225 954
225 963
225 1014
225 1015
225 1016
225 1037
225 1038
225 1042
226 505
226 508
226 511
226 623
226 625
226 627
226 952
226 961
226 970
226 1002
226 1003
226 1004
226 1027
226 1031
226 1032
227 505
227 508
227 511
227 630
227 635
227 637
227 950
227 959
227 968
227 1017
227 1018
227 1019
227 1044
227 1048
227 1052
228 488
228 491
228 494
228 630
228 635
228 637
228 953
228 962
228 971
228 1014
228 1015
228 1016
228 1027
228 1031
228 1032
229 488
229 491
229 494
229 640
229 642
229 647
229 948
229 957
229 966
229 1002
229 1003
229 1004
229 1044
229 1048
229 1052
230 488
230 491
230 494
230 623
230 625
230 627
230 946
230 955
230 964
230 1017
230 1018
230 1019
230 1037
230 1038
230 1042
231 495
231 498
231 501
231 623
231 625
231 627
231 949
231 958
231 967
231 1014
231 1015
231 1016
231 1044
231 1048
231 1052
232 495
232 498
232 501
232 630
232 635
232 637
232 947
232 956
232 965
232 1002
232 1003
232 1004
232 1037
232 1038
232 1042
233 495
233 498
233 501
233 640
233 642
233 647
233 951
233 960
233 969
233 1017
233 1018
233 1019
233 1027
233 1031
233 1032
234 497
234 500
234 503
234 632
234 634
234 636
234 945
234 954
234 963
234 1020
234 1021
234 1022
234 1045
234 1049
234 1050
235 497
235 500
235 503
235 639
235 644
235 646
235 952
235 961
235 970
235 1008
235 1009
235 1010
235 1035
235 1039
235 1043
236 497
236 500
236 503
236 622
236 624
236 629
236 950
236 959
236 968
236 1005
236 1006
236 1007
236 1028
236 1029
236 1033
237 504
237 507
237 510
237 622
237 624
237 629
237 953
237 962
237 971
237 1020
237 1021
237 1022
237 1035
237 1039
237 1043
238 504
238 507
238 510
238 632
238 634
238 636
238 948
238 957
238 966
238 1008
238 1009
238 1010
238 1028
238 1029
238 1033
239 504
239 507
239 510
239 639
239 644
239 646
239 946
239 955
239 964
239 1005
239 1006
239 1007
239 1045
239 1049
239 1050
240 487
240 490
240 493
240 639
240 644
240 646
240 949
240 958
240 967
240 1020
240 1021
240 1022
240 1028
240 1029
240 1033
241 487
241 490
241 493
241 622
241 624
241 629
241 947
241 956
241 965
241 1008
241 1009
241 1010
241 1045
241 1049
241 1050
242 487
242 490
242 493
242 632
242 634
242 636
242 951
242 960
242 969
242 1005
242 1006
242 1007
242 1035
242 1039
242 1043
243 783
243 786
243 789
243 810
243 815
243 817
243 972
243 981
243 990
243 1323
243 1324
243 1325
243 1377
243 1381
243 1385
244 783
244 786
244 789
244 820
244 822
244 827
244 979
244 988
244 997
244 1347
244 1348
244 1349
244 1397
244 1398
244 1402
245 783
245 786
245 789
245 830
245 832
245 834
245 977
245 986
245 995
245 1335
245 1336
245 1337
245 1387
245 1391
245 1392
246 793
246 796
246 799
246 830
246 832
246 834
246 980
246 989
246 998
246 1323
246 1324
246 1325
246 1397
246 1398
246 1402
247 793
247 796
247 799
247 810
247 815
247 817
247 975
247 984
247 993
247 1347
247 1348
247 1349
247 1387
247 1391
247 1392
248 793
248 796
248 799
248 820
248 822
248 827
248 973
248 982
248 991
248 1335
248 1336
248 1337
248 1377
248 1381
248 1385
249 803
249 806
249 809
249 820
249 822
249 827
249 976
249 985
249 994
249 1323
249 1324
249 1325
249 1387
249 1391
249 1392
250 803
250 806
250 809
250 830
250 832
250 834
250 974
250 983
250 992
250 1347
250 1348
250 1349
250 1377
250 1381
250 1385
251 803
251 806
251 809
251 810
251 815
251 817
251 978
251 987
251 996
251 1335
251 1336
251 1337
251 1397
251 1398
251 1402
252 802
252 805
252 808
252 829
252 831
252 836
252 972
252 981
252 990
252 1338
252 1339
252 1340
252 1388
252 1389
252 1393
253 802
253 805
253 808
253 812
253 814
253 816
253 979
253 988
253 997
253 1326
253 1327
253 1328
253 1378
253 1382
253 1383
254 802
254 805
254 808
254 819
254 824
254 826
254 977
254 986
254 995
254 1341
254 1342
254 1343
254 1395
254 1399
254 1403
255 785
255 788
255 791
255 819
255 824
255 826
255 980
255 989
255 998
255 1338
255 1339
255 1340
255 1378
255 1382
255 1383
256 785
256 788
256 791
256 829
256 831
256 836
256 975
256 984
256 993
256 1326
256 1327
256 1328
256 1395
256 1399
256 1403
257 785
257 788
257 791
257 812
257 814
257 816
257 973
257 982
257 991
257 1341
257 1342
257 1343
257 1388
257 1389
257 1393
258 792
258 795
258 798
258 812
258 814
258 816
258 976
258 985
258 994
258 1338
258 1339
258 1340
258 1395
258 1399
258 1403
259 792
259 795
259 798
259 819
259 824
259 826
259 974
259 983
259 992
259 1326
259 1327
259 1328
259 1388
259 1389
259 1393
260 792
260 795
260 798
260 829
260 831
260 836
260 978
260 987
260 996
260 1341
260 1342
260 1343
260 1378
260 1382
260 1383
261 794
261 797
261 800
261 821
261 823
261 825
261 972
261 981
261 990
261 1344
261 1345
261 1346
261 1396
261 1400
261 1401
262 794
262 797
262 800
262 828
262 833
262 835
262 979
262 988
262 997
262 1332
262 1333
262 1334
262 1386
262 1390
262 1394
263 794
263 797
263 800
263 811
263 813
263 818
263 977
263 986
263 995
263 1329
263 1330
263 1331
263 1379
263 1380
263 1384
264 801
264 804
264 807
264 811
264 813
264 818
264 980
264 989
264 998
264 1344
264 1345
264 1346
264 1386
264 1390
264 1394
265 801
265 804
265 807
265 821
265 823
265 825
265 975
265 984
265 993
265 1332
265 1333
265 1334
265 1379
265 1380
265 1384
266 801
266 804
266 807
266 828
266 833
266 835
266 973
266 982
266 991
266 1329
266 1330
266 1331
266 1396
266 1400
266 1401
267 784
267 787
267 790
267 828
267 833
267 835
267 976
267 985
267 994
267 1344
267 1345
267 1346
267 1379
267 1380
267 1384
268 784
268 787
268 790
268 811
268 813
268 818
268 974
268 983
268 992
268 1332
268 1333
268 1334
268 1396
268 1400
268 1401
269 784
269 787
269 790
269 821
269 823
269 825
269 978
269 987
269 996
269 1329
269 1330
269 1331
269 1386
269 1390
269 1394
270 810
270 813
270 816
270 837
270 842
270 844
270 999
270 1008
270 1017
270 1350
270 1351
270 1352
270 1404
270 1408
270 1412
271 810
271 813
271 816
271 847
271 849
271 854
271 1006
271 1015
271 1024
271 1374
271 1375
271 1376
271 1424
271 1425
271 1429
272 810
272 813
272 816
272 857
272 859
272 861
272 1004
272 1013
272 1022
272 1362
272 1363
272 1364
272 1414
272 1418
272 1419
273 820
273 823
273 826
273 857
273 859
273 861
273 1007
273 1016
273 1025
273 1350
273 1351
273 1352
273 1424
273 1425
273 1429
274 820
274 823
274 826
274 837
274 842
274 844
274 1002
274 1011
274 1020
274 1374
274 1375
274 1376
274 1414
274 1418
274 1419
275 820
275 823
275 826
275 847
275 849
275 854
275 1000
275 1009
275 1018
275 1362
275 1363
275 1364
275 1404
275 1408
275 1412
276 830
276 833
276 836
276 847
276 849
276 854
276 1003
276 1012
276 1021
276 1350
276 1351
276 1352
276 1414
276 1418
276 1419
277 830
277 833
277 836
277 857
277 859
277 861
277 1001
277 1010
277 1019
277 1374
277 1375
277 1376
277 1404
277 1408
277 1412
278 830
278 833
278 836
278 837
278 842
278 844
278 1005
278 1014
278 1023
278 1362
278 1363
278 1364
278 1424
278 1425
278 1429
279 829
279 832
279 835
279 856
279 858
279 863
279 999
279 1008
279 1017
279 1365
279 1366
279 1367
279 1415
279 1416
279 1420
280 829
280 832
280 835
280 839
280 841
280 843
280 1006
280 1015
280 1024
280 1353
280 1354
280 1355
280 1405
280 1409
280 1410
281 829
281 832
281 835
281 846
281 851
281 853
281 1004
281 1013
281 1022
281 1368
281 1369
281 1370
281 1422
281 1426
281 1430
282 812
282 815
282 818
282 846
282 851
282 853
282 1007
282 1016
282 1025
282 1365
282 1366
282 1367
282 1405
282 1409
282 1410
283 812
283 815
283 818
283 856
283 858
283 863
283 1002
283 1011
283 1020
283 1353
283 1354
283 1355
283 1422
283 1426
283 1430
284 812
284 815
284 818
284 839
284 841
284 843
284 1000
284 1009
284 1018
284 1368
284 1369
284 1370
284 1415
284 1416
284 1420
285 819
285 822
285 825
285 839
285 841
285 843
285 1003
285 1012
285 1021
285 1365
285 1366
285 1367
285 1422
285 1426
285 1430
286 819
286 822
286 825
286 846
286 851
286 853
286 1001
286 1010
286 1019
286 1353
286 1354
286 1355
286 1415
286 1416
286 1420
287 819
287 822
287 825
287 856
287 858
287 863
287 1005
287 1014
287 1023
287 1368
287 1369
287 1370
287 1405
287 1409
287 1410
288 821
288 824
288 827
288 848
288 850
288 852
288 999
288 1008
288 1017
288 1371
288 1372
288 1373
288 1423
288 1427
288 1428
289 821
289 824
289 827
289 855
289 860
289 862
289 1006
289 1015
289 1024
289 1359
289 1360
289 1361
289 1413
289 1417
289 1421
290 821
290 824
290 827
290 838
290 840
290 845
290 1004
290 1013
290 1022
290 1356
290 1357
290 1358
290 1406
290 1407
290 1411
291 828
291 831
291 834
291 838
291 840
291 845
291 1007
291 1016
291 1025
291 1371
291 1372
291 1373
291 1413
291 1417
291 1421
292 828
292 831
292 834
292 848
292 850
292 852
292 1002
292 1011
292 1020
292 1359
292 1360
292 1361
292 1406
292 1407
292 1411
293 828
293 831
293 834
293 855
293 860
293 862
293 1000
293 1009
293 1018
293 1356
293 1357
293 1358
293 1423
293 1427
293 1428
294 811
294 814
294 817
294 855
294 860
294 862
294 1003
294 1012
294 1021
294 1371
294 1372
294 1373
294 1406
294 1407
294 1411
295 811
295 814
295 817
295 838
295 840
295 845
295 1001
295 1010
295 1019
295 1359
295 1360
295 1361
295 1423
295 1427
295 1428
296 811
296 814
296 817
296 848
296 850
296 852
296 1005
296 1014
296 1023
296 1356
296 1357
296 1358
296 1413
296 1417
296 1421
297 837
297 840
297 843
297 864
297 869
297 871
297 1026
297 1035
297 1044
297 1377
297 1378
297 1379
297 1431
297 1435
297 1439
298 837
298 840
298 843
298 874
298 876
298 881
298 1033
298 1042
298 1051
298 1401
298 1402
298 1403
298 1451
298 1452
298 1456
299 837
299 840
299 843
299 884
299 886
299 888
299 1031
299 1040
299 1049
299 1389
299 1390
299 1391
299 1441
299 1445
299 1446
300 847
300 850
300 853
300 884
300 886
300 888
300 1034
300 1043
300 1052
300 1377
300 1378
300 1379
300 1451
300 1452
300 1456
301 847
301 850
301 853
301 864
301 869
301 871
301 1029
301 1038
301 1047
301 1401
301 1402
301 1403
301 1441
301 1445
301 1446
302 847
302 850
302 853
302 874
302 876
302 881
302 1027
302 1036
302 1045
302 1389
302 1390
302 1391
302 1431
302 1435
302 1439
303 857
303 860
303 863
303 874
303 876
303 881
303 1030
303 1039
303 1048
303 1377
303 1378
303 1379
303 1441
303 1445
303 1446
304 857
304 860
304 863
304 884
304 886
304 888
304 1028
304 1037
304 1046
304 1401
304 1402
304 1403
304 1431
304 1435
304 1439
305 857
305 860
305 863
305 864
305 869
305 871
305 1032
305 1041
305 1050
305 1389
305 1390
305 1391
305 1451
305 1452
305 1456
306 856
306 859
306 862
306 883
306 885
306 890
306 1026
306 1035
306 1044
306 1392
306 1393
306 1394
306 1442
306 1443
306 1447
307 856
307 859
307 862
307 866
307 868
307 870
307 1033
307 1042
307 1051
307 1380
307 1381
307 1382
307 1432
307 1436
307 1437
308 856
308 859
308 862
308 873
308 878
308 880
308 1031
308 1040
308 1049
308 1395
308 1396
308 1397
308 1449
308 1453
308 1457
309 839
309 842
309 845
309 873
309 878
309 880
309 1034
309 1043
309 1052
309 1392
309 1393
309 1394
309 1432
309 1436
309 1437
310 839
310 842
310 845
310 883
310 885
310 890
310 1029
310 1038
310 1047
310 1380
310 1381
310 1382
310 1449
310 1453
310 1457
311 839
311 842
311 845
311 866
311 868
311 870
311 1027
311 1036
311 1045
311 1395
311 1396
311 1397
311 1442
311 1443
311 1447
312 846
312 849
312 852
312 866
312 868
312 870
312 1030
312 1039
312 1048
312 1392
312 1393
312 1394
312 1449
312 1453
312 1457
313 846
313 849
313 852
313 873
313 878
313 880
313 1028
313 1037
313 1046
313 1380
313 1381
313 1382
313 1442
313 1443
313 1447
314 846
314 849
314 852
314 883
314 885
314 890
314 1032
314 1041
314 1050
314 1395
314 1396
314 1397
314 1432
314 1436
314 1437
315 848
315 851
315 854
315 875
315 877
315 879
315 1026
315 1035
315 1044
315 1398
315 1399
315 1400
315 1450
315 1454
315 1455
316 848
316 851
316 854
316 882
316 887
316 889
316 1033
316 1042
316 1051
316 1386
316 1387
316 1388
316 1440
316 1444
316 1448
317 848
317 851
317 854
317 865
317 867
317 872
317 1031
317 1040
317 1049
317 1383
317 1384
317 1385
317 1433
317 1434
317 1438
318 855
318 858
318 861
318 865
318 867
318 872
318 1034
318 1043
318 1052
318 1398
318 1399
318 1400
318 1440
318 1444
318 1448
319 855
319 858
319 861
319 875
319 877
319 879
319 1029
319 1038
319 1047
319 1386
319 1387
319 1388
319 1433
319 1434
319 1438
320 855
320 858
320 861
320 882
320 887
320 889
320 1027
320 1036
320 1045
320 1383
320 1384
320 1385
320 1450
320 1454
320 1455
321 838
321 841
321 844
321 882
321 887
321 889
321 1030
321 1039
321 1048
321 1398
321 1399
321 1400
321 1433
321 1434
321 1438
322 838
322 841
322 844
322 865
322 867
322 872
322 1028
322 1037
322 1046
322 1386
322 1387
322 1388
322 1450
322 1454
322 1455
323 838
323 841
323 844
323 875
323 877
323 879
323 1032
323 1041
323 1050
323 1383
323 1384
323 1385
323 1440
323 1444
323 1448
324 864
324 867
324 870
324 891
324 896
324 898
324 1053
324 1062
324 1071
324 1215
324 1219
324 1223
324 1404
324 1405
324 1406
325 864
325 867
325 870
325 901
325 903
325 908
325 1060
325 1069
325 1078
325 1235
325 1236
325 1240
325 1428
325 1429
325 1430
326 864
326 867
326 870
326 911
326 913
326 915
326 1058
326 1067
326 1076
326 1225
326 1229
326 1230
326 1416
326 1417
326 1418
327 874
327 877
327 880
327 911
327 913
327 915
327 1061
327 1070
327 1079
327 1235
327 1236
327 1240
327 1404
327 1405
327 1406
328 874
328 877
328 880
328 891
328 896
328 898
328 1056
328 1065
328 1074
328 1225
328 1229
328 1230
328 1428
328 1429
328 1430
329 874
329 877
329 880
329 901
329 903
329 908
329 1054
329 1063
329 1072
329 1215
329 1219
329 1223
329 1416
329 1417
329 1418
330 884
330 887
330 890
330 901
330 903
330 908
330 1057
330 1066
330 1075
330 1225
330 1229
330 1230
330 1404
330 1405
330 1406
331 884
331 887
331 890
331 911
331 913
331 915
331 1055
331 1064
331 1073
331 1215
331 1219
331 1223
331 1428
331 1429
331 1430
332 884
332 887
332 890
332 891
332 896
332 898
332 1059
332 1068
332 1077
332 1235
332 1236
332 1240
332 1416
332 1417
332 1418
333 883
333 886
333 889
333 910
333 912
333 917
333 1053
333 1062
333 1071
333 1226
333 1227
333 1231
333 1419
333 1420
333 1421
334 883
334 886
334 889
334 893
334 895
334 897
334 1060
334 1069
334 1078
334 1216
334 1220
334 1221
334 1407
334 1408
334 1409
335 883
335 886
335 889
335 900
335 905
335 907
335 1058
335 1067
335 1076
335 1233
335 1237
335 1241
335 1422
335 1423
335 1424
336 866
336 869
336 872
336 900
336 905
336 907
336 1061
336 1070
336 1079
336 1216
336 1220
336 1221
336 1419
336 1420
336 1421
337 866
337 869
337 872
337 910
337 912
337 917
337 1056
337 1065
337 1074
337 1233
337 1237
337 1241
337 1407
337 1408
337 1409
338 866
338 869
338 872
338 893
338 895
338 897
338 1054
338 1063
338 1072
338 1226
338 1227
338 1231
338 1422
338 1423
338 1424
339 873
339 876
339 879
339 893
339 895
339 897
339 1057
339 1066
339 1075
339 1233
339 1237
339 1241
339 1419
339 1420
339 1421
340 873
340 876
340 879
340 900
340 905
340 907
340 1055
340 1064
340 1073
340 1226
340 1227
340 1231
340 1407
340 1408
340 1409
341 873
341 876
341 879
341 910
341 912
341 917
341 1059
341 1068
341 1077
341 1216
341 1220
341 1221
341 1422
341 1423
341 1424
342 875
342 878
342 881
342 902
342 904
342 906
342 1053
342 1062
342 1071
342 1234
342 1238
342 1239
342 1425
342 1426
342 1427
343 875
343 878
343 881
343 909
343 914
343 916
343 1060
343 1069
343 1078
343 1224
343 1228
343 1232
343 1413
343 1414
343 1415
344 875
344 878
344 881
344 892
344 894
344 899
344 1058
344 1067
344 1076
344 1217
344 1218
344 1222
344 1410
344 1411
344 1412
345 882
345 885
345 888
345 892
345 894
345 899
345 1061
345 1070
345 1079
345 1224
345 1228
345 1232
345 1425
345 1426
345 1427
346 882
346 885
346 888
346 902
346 904
346 906
346 1056
346 1065
346 1074
346 1217
346 1218
346 1222
346 1413
346 1414
346 1415
347 882
347 885
347 888
347 909
347 914
347 916
347 1054
347 1063
347 1072
347 1234
347 1238
347 1239
347 1410
347 1411
347 1412
348 865
348 868
348 871
348 909
348 914
348 916
348 1057
348 1066
348 1075
348 1217
348 1218
348 1222
348 1425
348 1426
348 1427
349 865
349 868
349 871
349 892
349 894
349 899
349 1055
349 1064
349 1073
349 1234
349 1238
349 1239
349 1413
349 1414
349 1415
350 865
350 868
350 871
350 902
350 904
350 906
350 1059
350 1068
350 1077
350 1224
350 1228
350 1232
350 1410
350 1411
350 1412
351 891
351 894
351 897
351 918
351 923
351 925
351 1080
351 1089
351 1098
351 1242
351 1246
351 1250
351 1431
351 1432
351 1433
352 891
352 894
352 897
352 928
352 930
352 935
352 1087
352 1096
352 1105
352 1262
352 1263
352 1267
352 1455
352 1456
352 1457
353 891
353 894
353 897
353 938
353 940
353 942
353 1085
353 1094
353 1103
353 1252
353 1256
353 1257
353 1443
353 1444
353 1445
354 901
354 904
354 907
354 938
354 940
354 942
354 1088
354 1097
354 1106
354 1262
354 1263
354 1267
354 1431
354 1432
354 1433
355 901
355 904
355 907
355 918
355 923
355 925
355 1083
355 1092
355 1101
355 1252
355 1256
355 1257
355 1455
355 1456
355 1457
356 901
356 904
356 907
356 928
356 930
356 935
356 1081
356 1090
356 1099
356 1242
356 1246
356 1250
356 1443
356 1444
356 1445
357 911
357 914
357 917
357 928
357 930
357 935
357 1084
357 1093
357 1102
357 1252
357 1256
357 1257
357 1431
357 1432
357 1433
358 911
358 914
358 917
358 938
358 940
358 942
358 1082
358 1091
358 1100
358 1242
358 1246
358 1250
358 1455
358 1456
358 1457
359 911
359 914
359 917
359 918
359 923
359 925
359 1086
359 1095
359 1104
359 1262
359 1263
359 1267
359 1443
359 1444
359 1445
360 910
360 913
360 916
360 937
360 939
360 944
360 1080
360 1089
360 1098
360 1253
360 1254
360 1258
360 1446
360 1447
360 1448
361 910
361 913
361 916
361 920
361 922
361 924
361 1087
361 1096
361 1105
361 1243
361 1247
361 1248
361 1434
361 1435
361 1436
362 910
362 913
362 916
362 927
362 932
362 934
362 1085
362 1094
362 1103
362 1260
362 1264
362 1268
362 1449
362 1450
362 1451
363 893
363 896
363 899
363 927
363 932
363 934
363 1088
363 1097
363 1106
363 1243
363 1247
363 1248
363 1446
363 1447
363 1448
364 893
364 896
364 899
364 937
364 939
364 944
364 1083
364 1092
364 1101
364 1260
364 1264
364 1268
364 1434
364 1435
364 1436
365 893
365 896
365 899
365 920
365 922
365 924
365 1081
365 1090
365 1099
365 1253
365 1254
365 1258
365 1449
365 1450
365 1451
366 900
366 903
366 906
366 920
366 922
366 924
366 1084
366 1093
366 1102
366 1260
366 1264
366 1268
366 1446
366 1447
366 1448
367 900
367 903
367 906
367 927
367 932
367 934
367 1082
367 1091
367 1100
367 1253
367 1254
367 1258
367 1434
367 1435
367 1436
368 900
368 903
368 906
368 937
368 939
368 944
368 1086
368 1095
368 1104
368 1243
368 1247
368 1248
368 1449
368 1450
368 1451
369 902
369 905
369 908
369 929
369 931
369 933
369 1080
369 1089
369 1098
369 1261
369 1265
369 1266
369 1452
369 1453
369 1454
370 902
370 905
370 908
370 936
370 941
370 943
370 1087
370 1096
370 1105
370 1251
370 1255
370 1259
370 1440
370 1441
370 1442
371 902
371 905
371 908
371 919
371 921
371 926
371 1085
371 1094
371 1103
371 1244
371 1245
371 1249
371 1437
371 1438
371 1439
372 909
372 912
372 915
372 919
372 921
372 926
372 1088
372 1097
372 1106
372 1251
372 1255
372 1259
372 1452
372 1453
372 1454
373 909
373 912
373 915
373 929
373 931
373 933
373 1083
373 1092
373 1101
373 1244
373 1245
373 1249
373 1440
373 1441
373 1442
374 909
374 912
374 915
374 936
374 941
374 943
374 1081
374 1090
374 1099
374 1261
374 1265
374 1266
374 1437
374 1438
374 1439
375 892
375 895
375 898
375 936
375 941
375 943
375 1084
375 1093
375 1102
375 1244
375 1245
375 1249
375 1452
375 1453
375 1454
376 892
376 895
376 898
376 919
376 921
376 926
376 1082
376 1091
376 1100
376 1261
376 1265
376 1266
376 1440
376 1441
376 1442
377 892
377 895
377 898
377 929
377 931
377 933
377 1086
377 1095
377 1104
377 1251
377 1255
377 1259
377 1437
377 1438
377 1439
378 918
378 921
378 924
378 945
378 950
378 952
378 1107
378 1116
378 1125
378 1215
378 1216
378 1217
378 1269
378 1273
378 1277
379 918
379 921
379 924
379 955
379 957
379 962
379 1114
379 1123
379 1132
379 1239
379 1240
379 1241
379 1289
379 1290
379 1294
380 918
380 921
380 924
380 965
380 967
380 969
380 1112
380 1121
380 1130
380 1227
380 1228
380 1229
380 1279
380 1283
380 1284
381 928
381 931
381 934
381 965
381 967
381 969
381 1115
381 1124
381 1133
381 1215
381 1216
381 1217
381 1289
381 1290
381 1294
382 928
382 931
382 934
382 945
382 950
382 952
382 1110
382 1119
382 1128
382 1239
382 1240
382 1241
382 1279
382 1283
382 1284
383 928
383 931
383 934
383 955
383 957
383 962
383 1108
383 1117
383 1126
383 1227
383 1228
383 1229
383 1269
383 1273
383 1277
384 938
384 941
384 944
384 955
384 957
384 962
384 1111
384 1120
384 1129
384 1215
384 1216
384 1217
384 1279
384 1283
384 1284
385 938
385 941
385 944
385 965
385 967
385 969
385 1109
385 1118
385 1127
385 1239
385 1240
385 1241
385 1269
385 1273
385 1277
386 938
386 941
386 944
386 945
386 950
386 952
386 1113
386 1122
386 1131
386 1227
386 1228
386 1229
386 1289
386 1290
386 1294
387 937
387 940
387 943
387 964
387 966
387 971
387 1107
387 1116
387 1125
387 1230
387 1231
387 1232
387 1280
387 1281
387 1285
388 937
388 940
388 943
388 947
388 949
388 951
388 1114
388 1123
388 1132
388 1218
388 1219
388 1220
388 1270
388 1274
388 1275
389 937
389 940
389 943
389 954
389 959
389 961
389 1112
389 1121
389 1130
389 1233
389 1234
389 1235
389 1287
389 1291
389 1295
390 920
390 923
390 926
390 954
390 959
390 961
390 1115
390 1124
390 1133
390 1230
390 1231
390 1232
390 1270
390 1274
390 1275
391 920
391 923
391 926
391 964
391 966
391 971
391 1110
391 1119
391 1128
391 1218
391 1219
391 1220
391 1287
391 1291
391 1295
392 920
392 923
392 926
392 947
392 949
392 951
392 1108
392 1117
392 1126
392 1233
392 1234
392 1235
392 1280
392 1281
392 1285
393 927
393 930
393 933
393 947
393 949
393 951
393 1111
393 1120
393 1129
393 1230
393 1231
393 1232
393 1287
393 1291
393 1295
394 927
394 930
394 933
394 954
394 959
394 961
394 1109
394 1118
394 1127
394 1218
394 1219
394 1220
394 1280
394 1281
394 1285
395 927
395 930
395 933
395 964
395 966
395 971
395 1113
395 1122
395 1131
395 1233
395 1234
395 1235
395 1270
395 1274
395 1275
396 929
396 932
396 935
396 956
396 958
396 960
396 1107
396 1116
396 1125
396 1236
396 1237
396 1238
396 1288
396 1292
396 1293
397 929
397 932
397 935
397 963
397 968
397 970
397 1114
397 1123
397 1132
397 1224
397 1225
397 1226
397 1278
397 1282
397 1286
398 929
398 932
398 935
398 946
398 948
398 953
398 1112
398 1121
398 1130
398 1221
398 1222
398 1223
398 1271
398 1272
398 1276
399 936
399 939
399 942
399 946
399 948
399 953
399 1115
399 1124
399 1133
399 1236
399 1237
399 1238
399 1278
399 1282
399 1286
400 936
400 939
400 942
400 956
400 958
400 960
400 1110
400 1119
400 1128
400 1224
400 1225
400 1226
400 1271
400 1272
400 1276
401 936
401 939
401 942
401 963
401 968
401 970
401 1108
401 1117
401 1126
401 1221
401 1222
401 1223
401 1288
401 1292
401 1293
402 919
402 922
402 925
402 963
402 968
402 970
402 1111
402 1120
402 1129
402 1236
402 1237
402 1238
402 1271
402 1272
402 1276
403 919
403 922
403 925
403 946
403 948
403 953
403 1109
403 1118
403 1127
403 1224
403 1225
403 1226
403 1288
403 1292
403 1293
404 919
404 922
404 925
404 956
404 958
404 960
404 1113
404 1122
404 1131
404 1221
404 1222
404 1223
404 1278
404 1282
404 1286
405 729
405 734
405 736
405 945
405 948
405 951
405 1134
405 1143
405 1152
405 1242
405 1243
405 1244
405 1296
405 1300
405 1304
406 739
406 741
406 746
406 945
406 948
406 951
406 1141
406 1150
406 1159
406 1266
406 1267
406 1268
406 1316
406 1317
406 1321
407 749
407 751
407 753
407 945
407 948
407 951
407 1139
407 1148
407 1157
407 1254
407 1255
407 1256
407 1306
407 1310
407 1311
408 749
408 751
408 753
408 955
408 958
408 961
408 1142
408 1151
408 1160
408 1242
408 1243
408 1244
408 1316
408 1317
408 1321
409 729
409 734
409 736
409 955
409 958
409 961
409 1137
409 1146
409 1155
409 1266
409 1267
409 1268
409 1306
409 1310
409 1311
410 739
410 741
410 746
410 955
410 958
410 961
410 1135
410 1144
410 1153
410 1254
410 1255
410 1256
410 1296
410 1300
410 1304
411 739
411 741
411 746
411 965
411 968
411 971
411 1138
411 1147
411 1156
411 1242
411 1243
411 1244
411 1306
411 1310
411 1311
412 749
412 751
412 753
412 965
412 968
412 971
412 1136
412 1145
412 1154
412 1266
412 1267
412 1268
412 1296
412 1300
412 1304
413 729
413 734
413 736
413 965
413 968
413 971
413 1140
413 1149
413 1158
413 1254
413 1255
413 1256
413 1316
413 1317
413 1321
414 748
414 750
414 755
414 964
414 967
414 970
414 1134
414 1143
414 1152
414 1257
414 1258
414 1259
414 1307
414 1308
414 1312
415 731
415 733
415 735
415 964
415 967
415 970
415 1141
415 1150
415 1159
415 1245
415 1246
415 1247
415 1297
415 1301
415 1302
416 738
416 743
416 745
416 964
416 967
416 970
416 1139
416 1148
416 1157
416 1260
416 1261
416 1262
416 1314
416 1318
416 1322
417 738
417 743
417 745
417 947
417 950
417 953
417 1142
417 1151
417 1160
417 1257
417 1258
417 1259
417 1297
417 1301
417 1302
418 748
418 750
418 755
418 947
418 950
418 953
418 1137
418 1146
418 1155
418 1245
418 1246
418 1247
418 1314
418 1318
418 1322
419 731
419 733
419 735
419 947
419 950
419 953
419 1135
419 1144
419 1153
419 1260
419 1261
419 1262
419 1307
419 1308
419 1312
420 731
420 733
420 735
420 954
420 957
420 960
420 1138
420 1147
420 1156
420 1257
420 1258
420 1259
420 1314
420 1318
420 1322
421 738
421 743
421 745
421 954
421 957
421 960
421 1136
421 1145
421 1154
421 1245
421 1246
421 1247
421 1307
421 1308
421 1312
422 748
422 750
422 755
422 954
422 957
422 960
422 1140
422 1149
422 1158
422 1260
422 1261
422 1262
422 1297
422 1301
422 1302
423 740
423 742
423 744
423 956
423 959
423 962
423 1134
423 1143
423 1152
423 1263
423 1264
423 1265
423 1315
423 1319
423 1320
424 747
424 752
424 754
424 956
424 959
424 962
424 1141
424 1150
424 1159
424 1251
424 1252
424 1253
424 1305
424 1309
424 1313
425 730
425 732
425 737
425 956
425 959
425 962
425 1139
425 1148
425 1157
425 1248
425 1249
425 1250
425 1298
425 1299
425 1303
426 730
426 732
426 737
426 963
426 966
426 969
426 1142
426 1151
426 1160
426 1263
426 1264
426 1265
426 1305
426 1309
426 1313
427 740
427 742
427 744
427 963
427 966
427 969
427 1137
427 1146
427 1155
427 1251
427 1252
427 1253
427 1298
427 1299
427 1303
428 747
428 752
428 754
428 963
428 966
428 969
428 1135
428 1144
428 1153
428 1248
428 1249
428 1250
428 1315
428 1319
428 1320
429 747
429 752
429 754
429 946
429 949
429 952
429 1138
429 1147
429 1156
429 1263
429 1264
429 1265
429 1298
429 1299
429 1303
430 730
430 732
430 737
430 946
430 949
430 952
430 1136
430 1145
430 1154
430 1251
430 1252
430 1253
430 1315
430 1319
430 1320
431 740
431 742
431 744
431 946
431 949
431 952
431 1140
431 1149
431 1158
431 1248
431 1249
431 1250
431 1305
431 1309
431 1313
432 729
432 732
432 735
432 756
432 761
432 763
432 1161
432 1170
432 1179
432 1269
432 1270
432 1271
432 1323
432 1327
432 1331
433 729
433 732
433 735
433 766
433 768
433 773
433 1168
433 1177
433 1186
433 1293
433 1294
433 1295
433 1343
433 1344
433 1348
434 729
434 732
434 735
434 776
434 778
434 780
434 1166
434 1175
434 1184
434 1281
434 1282
434 1283
434 1333
434 1337
434 1338
435 739
435 742
435 745
435 776
435 778
435 780
435 1169
435 1178
435 1187
435 1269
435 1270
435 1271
435 1343
435 1344
435 1348
436 739
436 742
436 745
436 756
436 761
436 763
436 1164
436 1173
436 1182
436 1293
436 1294
436 1295
436 1333
436 1337
436 1338
437 739
437 742
437 745
437 766
437 768
437 773
437 1162
437 1171
437 1180
437 1281
437 1282
437 1283
437 1323
437 1327
437 1331
438 749
438 752
438 755
438 766
438 768
438 773
438 1165
438 1174
438 1183
438 1269
438 1270
438 1271
438 1333
438 1337
438 1338
439 749
439 752
439 755
439 776
439 778
439 780
439 1163
439 1172
439 1181
439 1293
439 1294
439 1295
439 1323
439 1327
439 1331
440 749
440 752
440 755
440 756
440 761
440 763
440 1167
440 1176
440 1185
440 1281
440 1282
440 1283
440 1343
440 1344
440 1348
441 748
441 751
441 754
441 775
441 777
441 782
441 1161
441 1170
441 1179
441 1284
441 1285
441 1286
441 1334
441 1335
441 1339
442 748
442 751
442 754
442 758
442 760
442 762
442 1168
442 1177
442 1186
442 1272
442 1273
442 1274
442 1324
442 1328
442 1329
443 748
443 751
443 754
443 765
443 770
443 772
443 1166
443 1175
443 1184
443 1287
443 1288
443 1289
443 1341
443 1345
443 1349
444 731
444 734
444 737
444 765
444 770
444 772
444 1169
444 1178
444 1187
444 1284
444 1285
444 1286
444 1324
444 1328
444 1329
445 731
445 734
445 737
445 775
445 777
445 782
445 1164
445 1173
445 1182
445 1272
445 1273
445 1274
445 1341
445 1345
445 1349
446 731
446 734
446 737
446 758
446 760
446 762
446 1162
446 1171
446 1180
446 1287
446 1288
446 1289
446 1334
446 1335
446 1339
447 738
447 741
447 744
447 758
447 760
447 762
447 1165
447 1174
447 1183
447 1284
447 1285
447 1286
447 1341
447 1345
447 1349
448 738
448 741
448 744
448 765
448 770
448 772
448 1163
448 1172
448 1181
448 1272
448 1273
448 1274
448 1334
448 1335
448 1339
449 738
449 741
449 744
449 775
449 777
449 782
449 1167
449 1176
449 1185
449 1287
449 1288
449 1289
449 1324
449 1328
449 1329
450 740
450 743
450 746
450 767
450 769
450 771
450 1161
450 1170
450 1179
450 1290
450 1291
450 1292
450 1342
450 1346
450 1347
451 740
451 743
451 746
451 774
451 779
451 781
451 1168
451 1177
451 1186
451 1278
451 1279
451 1280
451 1332
451 1336
451 1340
452 740
452 743
452 746
452 757
452 759
452 764
452 1166
452 1175
452 1184
452 1275
452 1276
452 1277
452 1325
452 1326
452 1330
453 747
453 750
453 753
453 757
453 759
453 764
453 1169
453 1178
453 1187
453 1290
453 1291
453 1292
453 1332
453 1336
453 1340
454 747
454 750
454 753
454 767
454 769
454 771
454 1164
454 1173
454 1182
454 1278
454 1279
454 1280
454 1325
454 1326
454 1330
455 747
455 750
455 753
455 774
455 779
455 781
455 1162
455 1171
455 1180
455 1275
455 1276
455 1277
455 1342
455 1346
455 1347
456 730
456 733
456 736
456 774
456 779
456 781
456 1165
456 1174
456 1183
456 1290
456 1291
456 1292
456 1325
456 1326
456 1330
457 730
457 733
457 736
457 757
457 759
457 764
457 1163
457 1172
457 1181
457 1278
457 1279
457 1280
457 1342
457 1346
457 1347
458 730
458 733
458 736
458 767
458 769
458 771
458 1167
458 1176
458 1185
458 1275
458 1276
458 1277
458 1332
458 1336
458 1340
459 756
459 759
459 762
459 783
459 788
459 790
459 1188
459 1197
459 1206
459 1296
459 1297
459 1298
459 1350
459 1354
459 1358
460 756
460 759
460 762
460 793
460 795
460 800
460 1195
460 1204
460 1213
460 1320
460 1321
460 1322
460 1370
460 1371
460 1375
461 756
461 759
461 762
461 803
461 805
461 807
461 1193
461 1202
461 1211
461 1308
461 1309
461 1310
461 1360
461 1364
461 1365
462 766
462 769
462 772
462 803
462 805
462 807
462 1196
462 1205
462 1214
462 1296
462 1297
462 1298
462 1370
462 1371
462 1375
463 766
463 769
463 772
463 783
463 788
463 790
463 1191
463 1200
463 1209
463 1320
463 1321
463 1322
463 1360
463 1364
463 1365
464 766
464 769
464 772
464 793
464 795
464 800
464 1189
464 1198
464 1207
464 1308
464 1309
464 1310
464 1350
464 1354
464 1358
465 776
465 779
465 782
465 793
465 795
465 800
465 1192
465 1201
465 1210
465 1296
465 1297
465 1298
465 1360
465 1364
465 1365
466 776
466 779
466 782
466 803
466 805
466 807
466 1190
466 1199
466 1208
466 1320
466 1321
466 1322
466 1350
466 1354
466 1358
467 776
467 779
467 782
467 783
467 788
467 790
467 1194
467 1203
467 1212
467 1308
467 1309
467 1310
467 1370
467 1371
467 1375
468 775
468 778
468 781
468 802
468 804
468 809
468 1188
468 1197
468 1206
468 1311
468 1312
468 1313
468 1361
468 1362
468 1366
469 775
469 778
469 781
469 785
469 787
469 789
469 1195
469 1204
469 1213
469 1299
469 1300
469 1301
469 1351
469 1355
469 1356
470 775
470 778
470 781
470 792
470 797
470 799
470 1193
470 1202
470 1211
470 1314
470 1315
470 1316
470 1368
470 1372
470 1376
471 758
471 761
471 764
471 792
471 797
471 799
471 1196
471 1205
471 1214
471 1311
471 1312
471 1313
471 1351
471 1355
471 1356
472 758
472 761
472 764
472 802
472 804
472 809
472 1191
472 1200
472 1209
472 1299
472 1300
472 1301
472 1368
472 1372
472 1376
473 758
473 761
473 764
473 785
473 787
473 789
473 1189
473 1198
473 1207
473 1314
473 1315
473 1316
473 1361
473 1362
473 1366
474 765
474 768
474 771
474 785
474 787
474 789
474 1192
474 1201
474 1210
474 1311
474 1312
474 1313
474 1368
474 1372
474 1376
475 765
475 768
475 771
475 792
475 797
475 799
475 1190
475 1199
475 1208
475 1299
475 1300
475 1301
475 1361
475 1362
475 1366
476 765
476 768
476 771
476 802
476 804
476 809
476 1194
476 1203
476 1212
476 1314
476 1315
476 1316
476 1351
476 1355
476 1356
477 767
477 770
477 773
477 794
477 796
477 798
477 1188
477 1197
477 1206
477 1317
477 1318
477 1319
477 1369
477 1373
477 1374
478 767
478 770
478 773
478 801
478 806
478 808
478 1195
478 1204
478 1213
478 1305
478 1306
478 1307
478 1359
478 1363
478 1367
479 767
479 770
479 773
479 784
479 786
479 791
479 1193
479 1202
479 1211
479 1302
479 1303
479 1304
479 1352
479 1353
479 1357
480 774
480 777
480 780
480 784
480 786
480 791
480 1196
480 1205
480 1214
480 1317
480 1318
480 1319
480 1359
480 1363
480 1367
481 774
481 777
481 780
481 794
481 796
481 798
481 1191
481 1200
481 1209
481 1305
481 1306
481 1307
481 1352
481 1353
481 1357
482 774
482 777
482 780
482 801
482 806
482 808
482 1189
482 1198
482 1207
482 1302
482 1303
482 1304
482 1369
482 1373
482 1374
483 757
483 760
483 763
483 801
483 806
483 808
483 1192
483 1201
483 1210
483 1317
483 1318
483 1319
483 1352
483 1353
483 1357
484 757
484 760
484 763
484 784
484 786
484 791
484 1190
484 1199
484 1208
484 1305
484 1306
484 1307
484 1369
484 1373
484 1374
485 757
485 760
485 763
485 794
485 796
485 798
485 1194
485 1203
485 1212
485 1302
485 1303
485 1304
485 1359
485 1363
485 1367
486 1080
486 1083
486 1086
486 1134
486 1139
486 1141
486 1215
486 1224
486 1233
487 1080
487 1083
487 1086
487 1144
487 1146
487 1151
487 1222
487 1231
487 1240
488 1080
488 1083
488 1086
488 1154
488 1156
488 1158
488 1220
488 1229
488 1238
489 1090
489 1093
489 1096
489 1154
489 1156
489 1158
489 1223
489 1232
489 1241
490 1090
490 1093
490 1096
490 1134
490 1139
490 1141
490 1218
490 1227
490 1236
491 1090
491 1093
491 1096
491 1144
491 1146
491 1151
491 1216
491 1225
491 1234
492 1100
492 1103
492 1106
492 1144
492 1146
492 1151
492 1219
492 1228
492 1237
493 1100
493 1103
493 1106
493 1154
493 1156
493 1158
493 1217
493 1226
493 1235
494 1100
494 1103
494 1106
494 1134
494 1139
494 1141
494 1221
494 1230
494 1239
495 1099
495 1102
495 1105
495 1153
495 1155
495 1160
495 1215
495 1224
495 1233
496 1099
496 1102
496 1105
496 1136
496 1138
496 1140
496 1222
496 1231
496 1240
497 1099
497 1102
497 1105
497 1143
497 1148
497 1150
497 1220
497 1229
497 1238
498 1082
498 1085
498 1088
498 1143
498 1148
498 1150
498 1223
498 1232
498 1241
499 1082
499 1085
499 1088
499 1153
499 1155
499 1160
499 1218
499 1227
499 1236
500 1082
500 1085
500 1088
500 1136
500 1138
500 1140
500 1216
500 1225
500 1234
501 1089
501 1092
501 1095
501 1136
501 1138
501 1140
501 1219
501 1228
501 1237
502 1089
502 1092
502 1095
502 1143
502 1148
502 1150
502 1217
502 1226
502 1235
503 1089
503 1092
503 1095
503 1153
503 1155
503 1160
503 1221
503 1230
503 1239
504 1091
504 1094
504 1097
504 1145
504 1147
504 1149
504 1215
504 1224
504 1233
505 1091
505 1094
505 1097
505 1152
505 1157
505 1159
505 1222
505 1231
505 1240
506 1091
506 1094
506 1097
506 1135
506 1137
506 1142
506 1220
506 1229
506 1238
507 1098
507 1101
507 1104
507 1135
507 1137
507 1142
507 1223
507 1232
507 1241
508 1098
508 1101
508 1104
508 1145
508 1147
508 1149
508 1218
508 1227
508 1236
509 1098
509 1101
509 1104
509 1152
509 1157
509 1159
509 1216
509 1225
509 1234
510 1081
510 1084
510 1087
510 1152
510 1157
510 1159
510 1219
510 1228
510 1237
511 1081
511 1084
511 1087
511 1135
511 1137
511 1142
511 1217
511 1226
511 1235
512 1081
512 1084
512 1087
512 1145
512 1147
512 1149
512 1221
512 1230
512 1239
513 1107
513 1110
513 1113
513 1161
513 1166
513 1168
513 1242
513 1251
513 1260
514 1107
514 1110
514 1113
514 1171
514 1173
514 1178
514 1249
514 1258
514 1267
515 1107
515 1110
515 1113
515 1181
515 1183
515 1185
515 1247
515 1256
515 1265
516 1117
516 1120
516 1123
516 1181
516 1183
516 1185
516 1250
516 1259
516 1268
517 1117
517 1120
517 1123
517 1161
517 1166
517 1168
517 1245
517 1254
517 1263
518 1117
518 1120
518 1123
518 1171
518 1173
518 1178
518 1243
518 1252
518 1261
519 1127
519 1130
519 1133
519 1171
519 1173
519 1178
519 1246
519 1255
519 1264
520 1127
520 1130
520 1133
520 1181
520 1183
520 1185
520 1244
520 1253
520 1262
521 1127
521 1130
521 1133
521 1161
521 1166
521 1168
521 1248
521 1257
521 1266
522 1126
522 1129
522 1132
522 1180
522 1182
522 1187
522 1242
522 1251
522 1260
523 1126
523 1129
523 1132
523 1163
523 1165
523 1167
523 1249
523 1258
523 1267
524 1126
524 1129
524 1132
524 1170
524 1175
524 1177
524 1247
524 1256
524 1265
525 1109
525 1112
525 1115
525 1170
525 1175
525 1177
525 1250
525 1259
525 1268
526 1109
526 1112
526 1115
526 1180
526 1182
526 1187
526 1245
526 1254
526 1263
527 1109
527 1112
527 1115
527 1163
527 1165
527 1167
527 1243
527 1252
527 1261
528 1116
528 1119
528 1122
528 1163
528 1165
528 1167
528 1246
528 1255
528 1264
529 1116
529 1119
529 1122
529 1170
529 1175
529 1177
529 1244
529 1253
529 1262
530 1116
530 1119
530 1122
530 1180
530 1182
530 1187
530 1248
530 1257
530 1266
531 1118
531 1121
531 1124
531 1172
531 1174
531 1176
531 1242
531 1251
531 1260
532 1118
532 1121
532 1124
532 1179
532 1184
532 1186
532 1249
532 1258
532 1267
533 1118
533 1121
533 1124
533 1162
533 1164
533 1169
533 1247
533 1256
533 1265
534 1125
534 1128
534 1131
534 1162
534 1164
534 1169
534 1250
534 1259
534 1268
535 1125
535 1128
535 1131
535 1172
535 1174
535 1176
535 1245
535 1254
535 1263
536 1125
536 1128
536 1131
536 1179
536 1184
536 1186
536 1243
536 1252
536 1261
537 1108
537 1111
537 1114
537 1179
537 1184
537 1186
537 1246
537 1255
537 1264
538 1108
538 1111
538 1114
538 1162
538 1164
538 1169
538 1244
538 1253
538 1262
539 1108
539 1111
539 1114
539 1172
539 1174
539 1176
539 1248
539 1257
539 1266
540 1134
540 1137
540 1140
540 1188
540 1193
540 1195
540 1269
540 1278
540 1287
541 1134
541 1137
541 1140
541 1198
541 1200
541 1205
541 1276
541 1285
541 1294
542 1134
542 1137
542 1140
542 1208
542 1210
542 1212
542 1274
542 1283
542 1292
543 1144
543 1147
543 1150
543 1208
543 1210
543 1212
543 1277
543 1286
543 1295
544 1144
544 1147
544 1150
544 1188
544 1193
544 1195
544 1272
544 1281
544 1290
545 1144
545 1147
545 1150
545 1198
545 1200
545 1205
545 1270
545 1279
545 1288
546 1154
546 1157
546 1160
546 1198
546 1200
546 1205
546 1273
546 1282
546 1291
547 1154
547 1157
547 1160
547 1208
547 1210
547 1212
547 1271
547 1280
547 1289
548 1154
548 1157
548 1160
548 1188
548 1193
548 1195
548 1275
548 1284
548 1293
549 1153
549 1156
549 1159
549 1207
549 1209
549 1214
549 1269
549 1278
549 1287
550 1153
550 1156
550 1159
550 1190
550 1192
550 1194
550 1276
550 1285
550 1294
551 1153
551 1156
551 1159
551 1197
551 1202
551 1204
551 1274
551 1283
551 1292
552 1136
552 1139
552 1142
552 1197
552 1202
552 1204
552 1277
552 1286
552 1295
553 1136
553 1139
553 1142
553 1207
553 1209
553 1214
553 1272
553 1281
553 1290
554 1136
554 1139
554 1142
554 1190
554 1192
554 1194
554 1270
554 1279
554 1288
555 1143
555 1146
555 1149
555 1190
555 1192
555 1194
555 1273
555 1282
555 1291
556 1143
556 1146
556 1149
556 1197
556 1202
556 1204
556 1271
556 1280
556 1289
557 1143
557 1146
557 1149
557 1207
557 1209
557 1214
557 1275
557 1284
557 1293
558 1145
558 1148
558 1151
558 1199
558 1201
558 1203
558 1269
558 1278
558 1287
559 1145
559 1148
559 1151
559 1206
559 1211
559 1213
559 1276
559 1285
559 1294
560 1145
560 1148
560 1151
560 1189
560 1191
560 1196
560 1274
560 1283
560 1292
561 1152
561 1155
561 1158
561 1189
561 1191
561 1196
561 1277
561 1286
561 1295
562 1152
562 1155
562 1158
562 1199
562 1201
562 1203
562 1272
562 1281
562 1290
563 1152
563 1155
563 1158
563 1206
563 1211
563 1213
563 1270
563 1279
563 1288
564 1135
564 1138
564 1141
564 1206
564 1211
564 1213
564 1273
564 1282
564 1291
565 1135
565 1138
565 1141
565 1189
565 1191
565 1196
565 1271
565 1280
565 1289
566 1135
566 1138
566 1141
566 1199
566 1201
566 1203
566 1275
566 1284
566 1293
567 972
567 977
567 979
567 1161
567 1164
567 1167
567 1296
567 1305
567 1314
568 982
568 984
568 989
568 1161
568 1164
568 1167
568 1303
568 1312
568 1321
569 992
569 994
569 996
569 1161
569 1164
569 1167
569 1301
569 1310
569 1319
570 992
570 994
570 996
570 1171
570 1174
570 1177
570 1304
570 1313
570 1322
571 972
571 977
571 979
571 1171
571 1174
571 1177
571 1299
571 1308
571 1317
572 982
572 984
572 989
572 1171
572 1174
572 1177
572 1297
572 1306
572 1315
573 982
573 984
573 989
573 1181
573 1184
573 1187
573 1300
573 1309
573 1318
574 992
574 994
574 996
574 1181
574 1184
574 1187
574 1298
574 1307
574 1316
575 972
575 977
575 979
575 1181
575 1184
575 1187
575 1302
575 1311
575 1320
576 991
576 993
576 998
576 1180
576 1183
576 1186
576 1296
576 1305
576 1314
577 974
577 976
577 978
577 1180
577 1183
577 1186
577 1303
577 1312
577 1321
578 981
578 986
578 988
578 1180
578 1183
578 1186
578 1301
578 1310
578 1319
579 981
579 986
579 988
579 1163
579 1166
579 1169
579 1304
579 1313
579 1322
580 991
580 993
580 998
580 1163
580 1166
580 1169
580 1299
580 1308
580 1317
581 974
581 976
581 978
581 1163
581 1166
581 1169
581 1297
581 1306
581 1315
582 974
582 976
582 978
582 1170
582 1173
582 1176
582 1300
582 1309
582 1318
583 981
583 986
583 988
583 1170
583 1173
583 1176
583 1298
583 1307
583 1316
584 991
584 993
584 998
584 1170
584 1173
584 1176
584 1302
584 1311
584 1320
585 983
585 985
585 987
585 1172
585 1175
585 1178
585 1296
585 1305
585 1314
586 990
586 995
586 997
586 1172
586 1175
586 1178
586 1303
586 1312
586 1321
587 973
587 975
587 980
587 1172
587 1175
587 1178
587 1301
587 1310
587 1319
588 973
588 975
588 980
588 1179
588 1182
588 1185
588 1304
588 1313
588 1322
589 983
589 985
589 987
589 1179
589 1182
589 1185
589 1299
589 1308
589 1317
590 990
590 995
590 997
590 1179
590 1182
590 1185
590 1297
590 1306
590 1315
591 990
591 995
591 997
591 1162
591 1165
591 1168
591 1300
591 1309
591 1318
592 973
592 975
592 980
592 1162
592 1165
592 1168
592 1298
592 1307
592 1316
593 983
593 985
593 987
593 1162
593 1165
593 1168
593 1302
593 1311
593 1320
594 999
594 1004
594 1006
594 1188
594 1191
594 1194
594 1323
594 1332
594 1341
595 1009
595 1011
595 1016
595 1188
595 1191
595 1194
595 1330
595 1339
595 1348
596 1019
596 1021
596 1023
596 1188
596 1191
596 1194
596 1328
596 1337
596 1346
597 1019
597 1021
597 1023
597 1198
597 1201
597 1204
597 1331
597 1340
597 1349
598 999
598 1004
598 1006
598 1198
598 1201
598 1204
598 1326
598 1335
598 1344
599 1009
599 1011
599 1016
599 1198
599 1201
599 1204
599 1324
599 1333
599 1342
600 1009
600 1011
600 1016
600 1208
600 1211
600 1214
600 1327
600 1336
600 1345
601 1019
601 1021
601 1023
601 1208
601 1211
601 1214
601 1325
601 1334
601 1343
602 999
602 1004
602 1006
602 1208
602 1211
602 1214
602 1329
602 1338
602 1347
603 1018
603 1020
603 1025
603 1207
603 1210
603 1213
603 1323
603 1332
603 1341
604 1001
604 1003
604 1005
604 1207
604 1210
604 1213
604 1330
604 1339
604 1348
605 1008
605 1013
605 1015
605 1207
605 1210
605 1213
605 1328
605 1337
605 1346
606 1008
606 1013
606 1015
606 1190
606 1193
606 1196
606 1331
606 1340
606 1349
607 1018
607 1020
607 1025
607 1190
607 1193
607 1196
607 1326
607 1335
607 1344
608 1001
608 1003
608 1005
608 1190
608 1193
608 1196
608 1324
608 1333
608 1342
609 1001
609 1003
609 1005
609 1197
609 1200
609 1203
609 1327
609 1336
609 1345
610 1008
610 1013
610 1015
610 1197
610 1200
610 1203
610 1325
610 1334
610 1343
611 1018
611 1020
611 1025
611 1197
611 1200
611 1203
611 1329
611 1338
611 1347
612 1010
612 1012
612 1014
612 1199
612 1202
612 1205
612 1323
612 1332
612 1341
613 1017
613 1022
613 1024
613 1199
613 1202
613 1205
613 1330
613 1339
613 1348
614 1000
614 1002
614 1007
614 1199
614 1202
614 1205
614 1328
614 1337
614 1346
615 1000
615 1002
615 1007
615 1206
615 1209
615 1212
615 1331
615 1340
615 1349
616 1010
616 1012
616 1014
616 1206
616 1209
616 1212
616 1326
616 1335
616 1344
617 1017
617 1022
617 1024
617 1206
617 1209
617 1212
617 1324
617 1333
617 1342
618 1017
618 1022
618 1024
618 1189
618 1192
618 1195
618 1327
618 1336
618 1345
619 1000
619 1002
619 1007
619 1189
619 1192
619 1195
619 1325
619 1334
619 1343
620 1010
620 1012
620 1014
620 1189
620 1192
620 1195
620 1329
620 1338
620 1347
621 972
621 975
621 978
621 1026
621 1031
621 1033
621 1350
621 1359
621 1368
622 972
622 975
622 978
622 1036
622 1038
622 1043
622 1357
622 1366
622 1375
623 972
623 975
623 978
623 1046
623 1048
623 1050
623 1355
623 1364
623 1373
624 982
624 985
624 988
624 1046
624 1048
624 1050
624 1358
624 1367
624 1376
625 982
625 985
625 988
625 1026
625 1031
625 1033
625 1353
625 1362
625 1371
626 982
626 985
626 988
626 1036
626 1038
626 1043
626 1351
626 1360
626 1369
627 992
627 995
627 998
627 1036
627 1038
627 1043
627 1354
627 1363
627 1372
628 992
628 995
628 998
628 1046
628 1048
628 1050
628 1352
628 1361
628 1370
629 992
629 995
629 998
629 1026
629 1031
629 1033
629 1356
629 1365
629 1374
630 991
630 994
630 997
630 1045
630 1047
630 1052
630 1350
630 1359
630 1368
631 991
631 994
631 997
631 1028
631 1030
631 1032
631 1357
631 1366
631 1375
632 991
632 994
632 997
632 1035
632 1040
632 1042
632 1355
632 1364
632 1373
633 974
633 977
633 980
633 1035
633 1040
633 1042
633 1358
633 1367
633 1376
634 974
634 977
634 980
634 1045
634 1047
634 1052
634 1353
634 1362
634 1371
635 974
635 977
635 980
635 1028
635 1030
635 1032
635 1351
635 1360
635 1369
636 981
636 984
636 987
636 1028
636 1030
636 1032
636 1354
636 1363
636 1372
637 981
637 984
637 987
637 1035
637 1040
637 1042
637 1352
637 1361
637 1370
638 981
638 984
638 987
638 1045
638 1047
638 1052
638 1356
638 1365
638 1374
639 983
639 986
639 989
639 1037
639 1039
639 1041
639 1350
639 1359
639 1368
640 983
640 986
640 989
640 1044
640 1049
640 1051
640 1357
640 1366
640 1375
641 983
641 986
641 989
641 1027
641 1029
641 1034
641 1355
641 1364
641 1373
642 990
642 993
642 996
642 1027
642 1029
642 1034
642 1358
642 1367
642 1376
643 990
643 993
643 996
643 1037
643 1039
643 1041
643 1353
643 1362
643 1371
644 990
644 993
644 996
644 1044
644 1049
644 1051
644 1351
644 1360
644 1369
645 973
645 976
645 979
645 1044
645 1049
645 1051
645 1354
645 1363
645 1372
646 973
646 976
646 979
646 1027
646 1029
646 1034
646 1352
646 1361
646 1370
647 973
647 976
647 979
647 1037
647 1039
647 1041
647 1356
647 1365
647 1374
648 999
648 1002
648 1005
648 1053
648 1058
648 1060
648 1377
648 1386
648 1395
649 999
649 1002
649 1005
649 1063
649 1065
649 1070
649 1384
649 1393
649 1402
650 999
650 1002
650 1005
650 1073
650 1075
650 1077
650 1382
650 1391
650 1400
651 1009
651 1012
651 1015
651 1073
651 1075
651 1077
651 1385
651 1394
651 1403
652 1009
652 1012
652 1015
652 1053
652 1058
652 1060
652 1380
652 1389
652 1398
653 1009
653 1012
653 1015
653 1063
653 1065
653 1070
653 1378
653 1387
653 1396
654 1019
654 1022
654 1025
654 1063
654 1065
654 1070
654 1381
654 1390
654 1399
655 1019
655 1022
655 1025
655 1073
655 1075
655 1077
655 1379
655 1388
655 1397
656 1019
656 1022
656 1025
656 1053
656 1058
656 1060
656 1383
656 1392
656 1401
657 1018
657 1021
657 1024
657 1072
657 1074
657 1079
657 1377
657 1386
657 1395
658 1018
658 1021
658 1024
658 1055
658 1057
658 1059
658 1384
658 1393
658 1402
659 1018
659 1021
659 1024
659 1062
659 1067
659 1069
659 1382
659 1391
659 1400
660 1001
660 1004
660 1007
660 1062
660 1067
660 1069
660 1385
660 1394
660 1403
661 1001
661 1004
661 1007
661 1072
661 1074
661 1079
661 1380
661 1389
661 1398
662 1001
662 1004
662 1007
662 1055
662 1057
662 1059
662 1378
662 1387
662 1396
663 1008
663 1011
663 1014
663 1055
663 1057
663 1059
663 1381
663 1390
663 1399
664 1008
664 1011
664 1014
664 1062
664 1067
664 1069
664 1379
664 1388
664 1397
665 1008
665 1011
665 1014
665 1072
665 1074
665 1079
665 1383
665 1392
665 1401
666 1010
666 1013
666 1016
666 1064
666 1066
666 1068
666 1377
666 1386
666 1395
667 1010
667 1013
667 1016
667 1071
667 1076
667 1078
667 1384
667 1393
667 1402
668 1010
668 1013
668 1016
668 1054
668 1056
668 1061
668 1382
668 1391
668 1400
669 1017
669 1020
669 1023
669 1054
669 1056
669 1061
669 1385
669 1394
669 1403
670 1017
670 1020
670 1023
670 1064
670 1066
670 1068
670 1380
670 1389
670 1398
671 1017
671 1020
671 1023
671 1071
671 1076
671 1078
671 1378
671 1387
671 1396
672 1000
672 1003
672 1006
672 1071
672 1076
672 1078
672 1381
672 1390
672 1399
673 1000
673 1003
673 1006
673 1054
673 1056
673 1061
673 1379
673 1388
673 1397
674 1000
674 1003
674 1006
674 1064
674 1066
674 1068
674 1383
674 1392
674 1401
675 1026
675 1029
675 1032
675 1080
675 1085
675 1087
675 1404
675 1413
675 1422
676 1026
676 1029
676 1032
676 1090
676 1092
676 1097
676 1411
676 1420
676 1429
677 1026
677 1029
677 1032
677 1100
677 1102
677 1104
677 1409
677 1418
677 1427
678 1036
678 1039
678 1042
678 1100
678 1102
678 1104
678 1412
678 1421
678 1430
679 1036
679 1039
679 1042
679 1080
679 1085
679 1087
679 1407
679 1416
679 1425
680 1036
680 1039
680 1042
680 1090
680 1092
680 1097
680 1405
680 1414
680 1423
681 1046
681 1049
681 1052
681 1090
681 1092
681 1097
681 1408
681 1417
681 1426
682 1046
682 1049
682 1052
682 1100
682 1102
682 1104
682 1406
682 1415
682 1424
683 1046
683 1049
683 1052
683 1080
683 1085
683 1087
683 1410
683 1419
683 1428
684 1045
684 1048
684 1051
684 1099
684 1101
684 1106
684 1404
684 1413
684 1422
685 1045
685 1048
685 1051
685 1082
685 1084
685 1086
685 1411
685 1420
685 1429
686 1045
686 1048
686 1051
686 1089
686 1094
686 1096
686 1409
686 1418
686 1427
687 1028
687 1031
687 1034
687 1089
687 1094
687 1096
687 1412
687 1421
687 1430
688 1028
688 1031
688 1034
688 1099
688 1101
688 1106
688 1407
688 1416
688 1425
689 1028
689 1031
689 1034
689 1082
689 1084
689 1086
689 1405
689 1414
689 1423
690 1035
690 1038
690 1041
690 1082
690 1084
690 1086
690 1408
690 1417
690 1426
691 1035
691 1038
691 1041
691 1089
691 1094
691 1096
691 1406
691 1415
691 1424
692 1035
692 1038
692 1041
692 1099
692 1101
692 1106
692 1410
692 1419
692 1428
693 1037
693 1040
693 1043
693 1091
693 1093
693 1095
693 1404
693 1413
693 1422
694 1037
694 1040
694 1043
694 1098
694 1103
694 1105
694 1411
694 1420
694 1429
695 1037
695 1040
695 1043
695 1081
695 1083
695 1088
695 1409
695 1418
695 1427
696 1044
696 1047
696 1050
696 1081
696 1083
696 1088
696 1412
696 1421
696 1430
697 1044
697 1047
697 1050
697 1091
697 1093
697 1095
697 1407
697 1416
697 1425
698 1044
698 1047
698 1050
698 1098
698 1103
698 1105
698 1405
698 1414
698 1423
699 1027
699 1030
699 1033
699 1098
699 1103
699 1105
699 1408
699 1417
699 1426
700 1027
700 1030
700 1033
700 1081
700 1083
700 1088
700 1406
700 1415
700 1424
701 1027
701 1030
701 1033
701 1091
701 1093
701 1095
701 1410
701 1419
701 1428
702 1053
702 1056
702 1059
702 1107
702 1112
702 1114
702 1431
702 1440
702 1449
703 1053
703 1056
703 1059
703 1117
703 1119
703 1124
703 1438
703 1447
703 1456
704 1053
704 1056
704 1059
704 1127
704 1129
704 1131
704 1436
704 1445
704 1454
705 1063
705 1066
705 1069
705 1127
705 1129
705 1131
705 1439
705 1448
705 1457
706 1063
706 1066
706 1069
706 1107
706 1112
706 1114
706 1434
706 1443
706 1452
707 1063
707 1066
707 1069
707 1117
707 1119
707 1124
707 1432
707 1441
707 1450
708 1073
708 1076
708 1079
708 1117
708 1119
708 1124
708 1435
708 1444
708 1453
709 1073
709 1076
709 1079
709 1127
709 1129
709 1131
709 1433
709 1442
709 1451
710 1073
710 1076
710 1079
710 1107
710 1112
710 1114
710 1437
710 1446
710 1455
711 1072
711 1075
711 1078
711 1126
711 1128
711 1133
711 1431
711 1440
711 1449
712 1072
712 1075
712 1078
712 1109
712 1111
712 1113
712 1438
712 1447
712 1456
713 1072
713 1075
713 1078
713 1116
713 1121
713 1123
713 1436
713 1445
713 1454
714 1055
714 1058
714 1061
714 1116
714 1121
714 1123
714 1439
714 1448
714 1457
715 1055
715 1058
715 1061
715 1126
715 1128
715 1133
715 1434
715 1443
715 1452
716 1055
716 1058
716 1061
716 1109
716 1111
716 1113
716 1432
716 1441
716 1450
717 1062
717 1065
717 1068
717 1109
717 1111
717 1113
717 1435
717 1444
717 1453
718 1062
718 1065
718 1068
718 1116
718 1121
718 1123
718 1433
718 1442
718 1451
719 1062
719 1065
719 1068
719 1126
719 1128
719 1133
719 1437
719 1446
719 1455
720 1064
720 1067
720 1070
720 1118
720 1120
720 1122
720 1431
720 1440
720 1449
721 1064
721 1067
721 1070
721 1125
721 1130
721 1132
721 1438
721 1447
721 1456
722 1064
722 1067
722 1070
722 1108
722 1110
722 1115
722 1436
722 1445
722 1454
723 1071
723 1074
723 1077
723 1108
723 1110
723 1115
723 1439
723 1448
723 1457
724 1071
724 1074
724 1077
724 1118
724 1120
724 1122
724 1434
724 1443
724 1452
725 1071
725 1074
725 1077
725 1125
725 1130
725 1132
725 1432
725 1441
725 1450
726 1054
726 1057
726 1060
726 1125
726 1130
726 1132
726 1435
726 1444
726 1453
727 1054
727 1057
727 1060
727 1108
727 1110
727 1115
727 1433
727 1442
727 1451
728 1054
728 1057
728 1060
728 1118
728 1120
728 1122
728 1437
728 1446
728 1455
729 1296
729 1301
729 1303
729 1431
729 1434
729 1437
730 1306
730 1308
730 1313
730 1431
730 1434
730 1437
731 1316
731 1318
731 1320
731 1431
731 1434
731 1437
732 1316
732 1318
732 1320
732 1441
732 1444
732 1447
733 1296
733 1301
733 1303
733 1441
733 1444
733 1447
734 1306
734 1308
734 1313
734 1441
734 1444
734 1447
735 1306
735 1308
735 1313
735 1451
735 1454
735 1457
736 1316
736 1318
736 1320
736 1451
736 1454
736 1457
737 1296
737 1301
737 1303
737 1451
737 1454
737 1457
738 1315
738 1317
738 1322
738 1450
738 1453
738 1456
739 1298
739 1300
739 1302
739 1450
739 1453
739 1456
740 1305
740 1310
740 1312
740 1450
740 1453
740 1456
741 1305
741 1310
741 1312
741 1433
741 1436
741 1439
742 1315
742 1317
742 1322
742 1433
742 1436
742 1439
743 1298
743 1300
743 1302
743 1433
743 1436
743 1439
744 1298
744 1300
744 1302
744 1440
744 1443
744 1446
745 1305
745 1310
745 1312
745 1440
745 1443
745 1446
746 1315
746 1317
746 1322
746 1440
746 1443
746 1446
747 1307
747 1309
747 1311
747 1442
747 1445
747 1448
748 1314
748 1319
748 1321
748 1442
748 1445
748 1448
749 1297
749 1299
749 1304
749 1442
749 1445
749 1448
750 1297
750 1299
750 1304
750 1449
750 1452
750 1455
751 1307
751 1309
751 1311
751 1449
751 1452
751 1455
752 1314
752 1319
752 1321
752 1449
752 1452
752 1455
753 1314
753 1319
753 1321
753 1432
753 1435
753 1438
754 1297
754 1299
754 1304
754 1432
754 1435
754 1438
755 1307
755 1309
755 1311
755 1432
755 1435
755 1438
756 1215
756 1218
756 1221
756 1323
756 1328
756 1330
757 1215
757 1218
757 1221
757 1333
757 1335
757 1340
758 1215
758 1218
758 1221
758 1343
758 1345
758 1347
759 1225
759 1228
759 1231
759 1343
759 1345
759 1347
760 1225
760 1228
760 1231
760 1323
760 1328
760 1330
761 1225
761 1228
761 1231
761 1333
761 1335
761 1340
762 1235
762 1238
762 1241
762 1333
762 1335
762 1340
763 1235
763 1238
763 1241
763 1343
763 1345
763 1347
764 1235
764 1238
764 1241
764 1323
764 1328
764 1330
765 1234
765 1237
765 1240
765 1342
765 1344
765 1349
766 1234
766 1237
766 1240
766 1325
766 1327
766 1329
767 1234
767 1237
767 1240
767 1332
767 1337
767 1339
768 1217
768 1220
768 1223
768 1332
768 1337
768 1339
769 1217
769 1220
769 1223
769 1342
769 1344
769 1349
770 1217
770 1220
770 1223
770 1325
770 1327
770 1329
771 1224
771 1227
771 1230
771 1325
771 1327
771 1329
772 1224
772 1227
772 1230
772 1332
772 1337
772 1339
773 1224
773 1227
773 1230
773 1342
773 1344
773 1349
774 1226
774 1229
774 1232
774 1334
774 1336
774 1338
775 1226
775 1229
775 1232
775 1341
775 1346
775 1348
776 1226
776 1229
776 1232
776 1324
776 1326
776 1331
777 1233
777 1236
777 1239
777 1324
777 1326
777 1331
778 1233
778 1236
778 1239
778 1334
778 1336
778 1338
779 1233
779 1236
779 1239
779 1341
779 1346
779 1348
780 1216
780 1219
780 1222
780 1341
780 1346
780 1348
781 1216
781 1219
781 1222
781 1324
781 1326
781 1331
782 1216
782 1219
782 1222
782 1334
782 1336
782 1338
783 1242
783 1245
783 1248
783 1350
783 1355
783 1357
784 1242
784 1245
784 1248
784 1360
784 1362
784 1367
785 1242
785 1245
785 1248
785 1370
785 1372
785 1374
786 1252
786 1255
786 1258
786 1370
786 1372
786 1374
787 1252
787 1255
787 1258
787 1350
787 1355
787 1357
788 1252
788 1255
788 1258
788 1360
788 1362
788 1367
789 1262
789 1265
789 1268
789 1360
789 1362
789 1367
790 1262
790 1265
790 1268
790 1370
790 1372
790 1374
791 1262
791 1265
791 1268
791 1350
791 1355
791 1357
792 1261
792 1264
792 1267
792 1369
792 1371
792 1376
793 1261
793 1264
793 1267
793 1352
793 1354
793 1356
794 1261
794 1264
794 1267
794 1359
794 1364
794 1366
795 1244
795 1247
795 1250
795 1359
795 1364
795 1366
796 1244
796 1247
796 1250
796 1369
796 1371
796 1376
797 1244
797 1247
797 1250
797 1352
797 1354
797 1356
798 1251
798 1254
798 1257
798 1352
798 1354
798 1356
799 1251
799 1254
799 1257
799 1359
799 1364
799 1366
800 1251
800 1254
800 1257
800 1369
800 1371
800 1376
801 1253
801 1256
801 1259
801 1361
801 1363
801 1365
802 1253
802 1256
802 1259
802 1368
802 1373
802 1375
803 1253
803 1256
803 1259
803 1351
803 1353
803 1358
804 1260
804 1263
804 1266
804 1351
804 1353
804 1358
805 1260
805 1263
805 1266
805 1361
805 1363
805 1365
806 1260
806 1263
806 1266
806 1368
806 1373
806 1375
807 1243
807 1246
807 1249
807 1368
807 1373
807 1375
808 1243
808 1246
808 1249
808 1351
808 1353
808 1358
809 1243
809 1246
809 1249
809 1361
809 1363
809 1365
810 1269
810 1272
810 1275
810 1377
810 1382
810 1384
811 1269
811 1272
811 1275
811 1387
811 1389
811 1394
812 1269
812 1272
812 1275
812 1397
812 1399
812 1401
813 1279
813 1282
813 1285
813 1397
813 1399
813 1401
814 1279
814 1282
814 1285
814 1377
814 1382
814 1384
815 1279
815 1282
815 1285
815 1387
815 1389
815 1394
816 1289
816 1292
816 1295
816 1387
816 1389
816 1394
817 1289
817 1292
817 1295
817 1397
817 1399
817 1401
818 1289
818 1292
818 1295
818 1377
818 1382
818 1384
819 1288
819 1291
819 1294
819 1396
819 1398
819 1403
820 1288
820 1291
820 1294
820 1379
820 1381
820 1383
821 1288
821 1291
821 1294
821 1386
821 1391
821 1393
822 1271
822 1274
822 1277
822 1386
822 1391
822 1393
823 1271
823 1274
823 1277
823 1396
823 1398
823 1403
824 1271
824 1274
824 1277
824 1379
824 1381
824 1383
825 1278
825 1281
825 1284
825 1379
825 1381
825 1383
826 1278
826 1281
826 1284
826 1386
826 1391
826 1393
827 1278
827 1281
827 1284
827 1396
827 1398
827 1403
828 1280
828 1283
828 1286
828 1388
828 1390
828 1392
829 1280
829 1283
829 1286
829 1395
829 1400
829 1402
830 1280
830 1283
830 1286
830 1378
830 1380
830 1385
831 1287
831 1290
831 1293
831 1378
831 1380
831 1385
832 1287
832 1290
832 1293
832 1388
832 1390
832 1392
833 1287
833 1290
833 1293
833 1395
833 1400
833 1402
834 1270
834 1273
834 1276
834 1395
834 1400
834 1402
835 1270
835 1273
835 1276
835 1378
835 1380
835 1385
836 1270
836 1273
836 1276
836 1388
836 1390
836 1392
837 1296
837 1299
837 1302
837 1404
837 1409
837 1411
838 1296
838 1299
838 1302
838 1414
838 1416
838 1421
839 1296
839 1299
839 1302
839 1424
839 1426
839 1428
840 1306
840 1309
840 1312
840 1424
840 1426
840 1428
841 1306
841 1309
841 1312
841 1404
841 1409
841 1411
842 1306
842 1309
842 1312
842 1414
842 1416
842 1421
843 1316
843 1319
843 1322
843 1414
843 1416
843 1421
844 1316
844 1319
844 1322
844 1424
844 1426
844 1428
845 1316
845 1319
845 1322
845 1404
845 1409
845 1411
846 1315
846 1318
846 1321
846 1423
846 1425
846 1430
847 1315
847 1318
847 1321
847 1406
847 1408
847 1410
848 1315
848 1318
848 1321
848 1413
848 1418
848 1420
849 1298
849 1301
849 1304
849 1413
849 1418
849 1420
850 1298
850 1301
850 1304
850 1423
850 1425
850 1430
851 1298
851 1301
851 1304
851 1406
851 1408
851 1410
852 1305
852 1308
852 1311
852 1406
852 1408
852 1410
853 1305
853 1308
853 1311
853 1413
853 1418
853 1420
854 1305
854 1308
854 1311
854 1423
854 1425
854 1430
855 1307
855 1310
855 1313
855 1415
855 1417
855 1419
856 1307
856 1310
856 1313
856 1422
856 1427
856 1429
857 1307
857 1310
857 1313
857 1405
857 1407
857 1412
858 1314
858 1317
858 1320
858 1405
858 1407
858 1412
859 1314
859 1317
859 1320
859 1415
859 1417
859 1419
860 1314
860 1317
860 1320
860 1422
860 1427
860 1429
861 1297
861 1300
861 1303
861 1422
861 1427
861 1429
862 1297
862 1300
862 1303
862 1405
862 1407
862 1412
863 1297
863 1300
863 1303
863 1415
863 1417
863 1419
864 1323
864 1326
864 1329
864 1431
864 1436
864 1438
865 1323
865 1326
865 1329
865 1441
865 1443
865 1448
866 1323
866 1326
866 1329
866 1451
866 1453
866 1455
867 1333
867 1336
867 1339
867 1451
867 1453
867 1455
868 1333
868 1336
868 1339
868 1431
868 1436
868 1438
869 1333
869 1336
869 1339
869 1441
869 1443
869 1448
870 1343
870 1346
870 1349
870 1441
870 1443
870 1448
871 1343
871 1346
871 1349
871 1451
871 1453
871 1455
872 1343
872 1346
872 1349
872 1431
872 1436
872 1438
873 1342
873 1345
873 1348
873 1450
873 1452
873 1457
874 1342
874 1345
874 1348
874 1433
874 1435
874 1437
875 1342
875 1345
875 1348
875 1440
875 1445
875 1447
876 1325
876 1328
876 1331
876 1440
876 1445
876 1447
877 1325
877 1328
877 1331
877 1450
877 1452
877 1457
878 1325
878 1328
878 1331
878 1433
878 1435
878 1437
879 1332
879 1335
879 1338
879 1433
879 1435
879 1437
880 1332
880 1335
880 1338
880 1440
880 1445
880 1447
881 1332
881 1335
881 1338
881 1450
881 1452
881 1457
882 1334
882 1337
882 1340
882 1442
882 1444
882 1446
883 1334
883 1337
883 1340
883 1449
883 1454
883 1456
884 1334
884 1337
884 1340
884 1432
884 1434
884 1439
885 1341
885 1344
885 1347
885 1432
885 1434
885 1439
886 1341
886 1344
886 1347
886 1442
886 1444
886 1446
887 1341
887 1344
887 1347
887 1449
887 1454
887 1456
888 1324
888 1327
888 1330
888 1449
888 1454
888 1456
889 1324
889 1327
889 1330
889 1432
889 1434
889 1439
890 1324
890 1327
890 1330
890 1442
890 1444
890 1446
891 1215
891 1220
891 1222
891 1350
891 1353
891 1356
892 1225
892 1227
892 1232
892 1350
892 1353
892 1356
893 1235
893 1237
893 1239
893 1350
893 1353
893 1356
894 1235
894 1237
894 1239
894 1360
894 1363
894 1366
895 1215
895 1220
895 1222
895 1360
895 1363
895 1366
896 1225
896 1227
896 1232
896 1360
896 1363
896 1366
897 1225
897 1227
897 1232
897 1370
897 1373
897 1376
898 1235
898 1237
898 1239
898 1370
898 1373
898 1376
899 1215
899 1220
899 1222
899 1370
899 1373
899 1376
900 1234
900 1236
900 1241
900 1369
900 1372
900 1375
901 1217
901 1219
901 1221
901 1369
901 1372
901 1375
902 1224
902 1229
902 1231
902 1369
902 1372
902 1375
903 1224
903 1229
903 1231
903 1352
903 1355
903 1358
904 1234
904 1236
904 1241
904 1352
904 1355
904 1358
905 1217
905 1219
905 1221
905 1352
905 1355
905 1358
906 1217
906 1219
906 1221
906 1359
906 1362
906 1365
907 1224
907 1229
907 1231
907 1359
907 1362
907 1365
908 1234
908 1236
908 1241
908 1359
908 1362
908 1365
909 1226
909 1228
909 1230
909 1361
909 1364
909 1367
910 1233
910 1238
910 1240
910 1361
910 1364
910 1367
911 1216
911 1218
911 1223
911 1361
911 1364
911 1367
912 1216
912 1218
912 1223
912 1368
912 1371
912 1374
913 1226
913 1228
913 1230
913 1368
913 1371
913 1374
914 1233
914 1238
914 1240
914 1368
914 1371
914 1374
915 1233
915 1238
915 1240
915 1351
915 1354
915 1357
916 1216
916 1218
916 1223
916 1351
916 1354
916 1357
917 1226
917 1228
917 1230
917 1351
917 1354
917 1357
918 1242
918 1247
918 1249
918 1377
918 1380
918 1383
919 1252
919 1254
919 1259
919 1377
919 1380
919 1383
920 1262
920 1264
920 1266
920 1377
920 1380
920 1383
921 1262
921 1264
921 1266
921 1387
921 1390
921 1393
922 1242
922 1247
922 1249
922 1387
922 1390
922 1393
923 1252
923 1254
923 1259
923 1387
923 1390
923 1393
924 1252
924 1254
924 1259
924 1397
924 1400
924 1403
925 1262
925 1264
925 1266
925 1397
925 1400
925 1403
926 1242
926 1247
926 1249
926 1397
926 1400
926 1403
927 1261
927 1263
927 1268
927 1396
927 1399
927 1402
928 1244
928 1246
928 1248
928 1396
928 1399
928 1402
929 1251
929 1256
929 1258
929 1396
929 1399
929 1402
930 1251
930 1256
930 1258
930 1379
930 1382
930 1385
931 1261
931 1263
931 1268
931 1379
931 1382
931 1385
932 1244
932 1246
932 1248
932 1379
932 1382
932 1385
933 1244
933 1246
933 1248
933 1386
933 1389
933 1392
934 1251
934 1256
934 1258
934 1386
934 1389
934 1392
935 1261
935 1263
935 1268
935 1386
935 1389
935 1392
936 1253
936 1255
936 1257
936 1388
936 1391
936 1394
937 1260
937 1265
937 1267
937 1388
937 1391
937 1394
938 1243
938 1245
938 1250
938 1388
938 1391
938 1394
939 1243
939 1245
939 1250
939 1395
939 1398
939 1401
940 1253
940 1255
940 1257
940 1395
940 1398
940 1401
941 1260
941 1265
941 1267
941 1395
941 1398
941 1401
942 1260
942 1265
942 1267
942 1378
942 1381
942 1384
943 1243
943 1245
943 1250
943 1378
943 1381
943 1384
944 1253
944 1255
944 1257
944 1378
944 1381
944 1384
945 1269
945 1274
945 1276
945 1404
945 1407
945 1410
946 1279
946 1281
946 1286
946 1404
946 1407
946 1410
947 1289
947 1291
947 1293
947 1404
947 1407
947 1410
948 1289
948 1291
948 1293
948 1414
948 1417
948 1420
949 1269
949 1274
949 1276
949 1414
949 1417
949 1420
950 1279
950 1281
950 1286
950 1414
950 1417
950 1420
951 1279
951 1281
951 1286
951 1424
951 1427
951 1430
952 1289
952 1291
952 1293
952 1424
952 1427
952 1430
953 1269
953 1274
953 1276
953 1424
953 1427
953 1430
954 1288
954 1290
954 1295
954 1423
954 1426
954 1429
955 1271
955 1273
955 1275
955 1423
955 1426
955 1429
956 1278
956 1283
956 1285
956 1423
956 1426
956 1429
957 1278
957 1283
957 1285
957 1406
957 1409
957 1412
958 1288
958 1290
958 1295
958 1406
958 1409
958 1412
959 1271
959 1273
959 1275
959 1406
959 1409
959 1412
960 1271
960 1273
960 1275
960 1413
960 1416
960 1419
961 1278
961 1283
961 1285
961 1413
961 1416
961 1419
962 1288
962 1290
962 1295
962 1413
962 1416
962 1419
963 1280
963 1282
963 1284
963 1415
963 1418
963 1421
964 1287
964 1292
964 1294
964 1415
964 1418
964 1421
965 1270
965 1272
965 1277
965 1415
965 1418
965 1421
966 1270
966 1272
966 1277
966 1422
966 1425
966 1428
967 1280
967 1282
967 1284
967 1422
967 1425
967 1428
968 1287
968 1292
968 1294
968 1422
968 1425
968 1428
969 1287
969 1292
969 1294
969 1405
969 1408
969 1411
970 1270
970 1272
970 1277
970 1405
970 1408
970 1411
971 1280
971 1282
971 1284
971 1405
971 1408
971 1411
