1920 15360
0 128
0 149
0 170
0 191
0 576
0 592
0 608
0 624
0 1152
0 1156
0 1160
0 1164
0 1280
0 1281
0 1282
0 1283
1 137
1 156
1 163
1 182
1 581
1 597
1 613
1 629
1 1152
1 1156
1 1160
1 1164
1 1316
1 1317
1 1318
1 1319
2 142
2 155
2 164
2 177
2 586
2 602
2 618
2 634
2 1152
2 1156
2 1160
2 1164
2 1336
2 1337
2 1338
2 1339
3 135
3 146
3 173
3 184
3 591
3 607
3 623
3 639
3 1152
3 1156
3 1160
3 1164
3 1308
3 1309
3 1310
3 1311
4 130
4 151
4 168
4 189
4 590
4 606
4 622
4 638
4 1169
4 1173
4 1177
4 1181
4 1280
4 1281
4 1282
4 1283
5 139
5 158
5 161
5 180
5 587
5 603
5 619
5 635
5 1169
5 1173
5 1177
5 1181
5 1316
5 1317
5 1318
5 1319
6 140
6 153
6 166
6 179
6 580
6 596
6 612
6 628
6 1169
6 1173
6 1177
6 1181
6 1336
6 1337
6 1338
6 1339
7 133
7 144
7 175
7 186
7 577
7 593
7 609
7 625
7 1169
7 1173
7 1177
7 1181
7 1308
7 1309
7 1310
7 1311
8 131
8 150
8 169
8 188
8 583
8 599
8 615
8 631
8 1186
8 1190
8 1194
8 1198
8 1280
8 1281
8 1282
8 1283
9 138
9 159
9 160
9 181
9 578
9 594
9 610
9 626
9 1186
9 1190
9 1194
9 1198
9 1316
9 1317
9 1318
9 1319
10 141
10 152
10 167
10 178
10 589
10 605
10 621
10 637
10 1186
10 1190
10 1194
10 1198
10 1336
10 1337
10 1338
10 1339
11 132
11 145
11 174
11 187
11 584
11 600
11 616
11 632
11 1186
11 1190
11 1194
11 1198
11 1308
11 1309
11 1310
11 1311
12 129
12 148
12 171
12 190
12 585
12 601
12 617
12 633
12 1203
12 1207
12 1211
12 1215
12 1280
12 1281
12 1282
12 1283
13 136
13 157
13 162
13 183
13 588
13 604
13 620
13 636
13 1203
13 1207
13 1211
13 1215
13 1316
13 1317
13 1318
13 1319
14 143
14 154
14 165
14 176
14 579
14 595
14 611
14 627
14 1203
14 1207
14 1211
14 1215
14 1336
14 1337
14 1338
14 1339
15 134
15 147
15 172
15 185
15 582
15 598
15 614
15 630
15 1203
15 1207
15 1211
15 1215
15 1308
15 1309
15 1310
15 1311
16 128
16 149
16 170
16 191
16 587
16 603
16 619
16 635
16 1202
16 1206
16 1210
16 1214
16 1332
16 1333
16 1334
16 1335
17 137
17 156
17 163
17 182
17 590
17 606
17 622
17 638
17 1202
17 1206
17 1210
17 1214
17 1296
17 1297
17 1298
17 1299
18 142
18 155
18 164
18 177
18 577
18 593
18 609
18 625
18 1202
18 1206
18 1210
18 1214
18 1292
18 1293
18 1294
18 1295
19 135
19 146
19 173
19 184
19 580
19 596
19 612
19 628
19 1202
19 1206
19 1210
19 1214
19 1320
19 1321
19 1322
19 1323
20 130
20 151
20 168
20 189
20 581
20 597
20 613
20 629
20 1187
20 1191
20 1195
20 1199
20 1332
20 1333
20 1334
20 1335
21 139
21 158
21 161
21 180
21 576
21 592
21 608
21 624
21 1187
21 1191
21 1195
21 1199
21 1296
21 1297
21 1298
21 1299
22 140
22 153
22 166
22 179
22 591
22 607
22 623
22 639
22 1187
22 1191
22 1195
22 1199
22 1292
22 1293
22 1294
22 1295
23 133
23 144
23 175
23 186
23 586
23 602
23 618
23 634
23 1187
23 1191
23 1195
23 1199
23 1320
23 1321
23 1322
23 1323
24 131
24 150
24 169
24 188
24 588
24 604
24 620
24 636
24 1168
24 1172
24 1176
24 1180
24 1332
24 1333
24 1334
24 1335
25 138
25 159
25 160
25 181
25 585
25 601
25 617
25 633
25 1168
25 1172
25 1176
25 1180
25 1296
25 1297
25 1298
25 1299
26 141
26 152
26 167
26 178
26 582
26 598
26 614
26 630
26 1168
26 1172
26 1176
26 1180
26 1292
26 1293
26 1294
26 1295
27 132
27 145
27 174
27 187
27 579
27 595
27 611
27 627
27 1168
27 1172
27 1176
27 1180
27 1320
27 1321
27 1322
27 1323
28 129
28 148
28 171
28 190
28 578
28 594
28 610
28 626
28 1153
28 1157
28 1161
28 1165
28 1332
28 1333
28 1334
28 1335
29 136
29 157
29 162
29 183
29 583
29 599
29 615
29 631
29 1153
29 1157
29 1161
29 1165
29 1296
29 1297
29 1298
29 1299
30 143
30 154
30 165
30 176
30 584
30 600
30 616
30 632
30 1153
30 1157
30 1161
30 1165
30 1292
30 1293
30 1294
30 1295
31 134
31 147
31 172
31 185
31 589
31 605
31 621
31 637
31 1153
31 1157
31 1161
31 1165
31 1320
31 1321
31 1322
31 1323
32 128
32 149
32 170
32 191
32 589
32 605
32 621
32 637
32 1171
32 1175
32 1179
32 1183
32 1304
32 1305
32 1306
32 1307
33 137
33 156
33 163
33 182
33 584
33 600
33 616
33 632
33 1171
33 1175
33 1179
33 1183
33 1340
33 1341
33 1342
33 1343
34 142
34 155
34 164
34 177
34 583
34 599
34 615
34 631
34 1171
34 1175
34 1179
34 1183
34 1312
34 1313
34 1314
34 1315
35 135
35 146
35 173
35 184
35 578
35 594
35 610
35 626
35 1171
35 1175
35 1179
35 1183
35 1284
35 1285
35 1286
35 1287
36 130
36 151
36 168
36 189
36 579
36 595
36 611
36 627
36 1154
36 1158
36 1162
36 1166
36 1304
36 1305
36 1306
36 1307
37 139
37 158
37 161
37 180
37 582
37 598
37 614
37 630
37 1154
37 1158
37 1162
37 1166
37 1340
37 1341
37 1342
37 1343
38 140
38 153
38 166
38 179
38 585
38 601
38 617
38 633
38 1154
38 1158
38 1162
38 1166
38 1312
38 1313
38 1314
38 1315
39 133
39 144
39 175
39 186
39 588
39 604
39 620
39 636
39 1154
39 1158
39 1162
39 1166
39 1284
39 1285
39 1286
39 1287
40 131
40 150
40 169
40 188
40 586
40 602
40 618
40 634
40 1201
40 1205
40 1209
40 1213
40 1304
40 1305
40 1306
40 1307
41 138
41 159
41 160
41 181
41 591
41 607
41 623
41 639
41 1201
41 1205
41 1209
41 1213
41 1340
41 1341
41 1342
41 1343
42 141
42 152
42 167
42 178
42 576
42 592
42 608
42 624
42 1201
42 1205
42 1209
42 1213
42 1312
42 1313
42 1314
42 1315
43 132
43 145
43 174
43 187
43 581
43 597
43 613
43 629
43 1201
43 1205
43 1209
43 1213
43 1284
43 1285
43 1286
43 1287
44 129
44 148
44 171
44 190
44 580
44 596
44 612
44 628
44 1184
44 1188
44 1192
44 1196
44 1304
44 1305
44 1306
44 1307
45 136
45 157
45 162
45 183
45 577
45 593
45 609
45 625
45 1184
45 1188
45 1192
45 1196
45 1340
45 1341
45 1342
45 1343
46 143
46 154
46 165
46 176
46 590
46 606
46 622
46 638
46 1184
46 1188
46 1192
46 1196
46 1312
46 1313
46 1314
46 1315
47 134
47 147
47 172
47 185
47 587
47 603
47 619
47 635
47 1184
47 1188
47 1192
47 1196
47 1284
47 1285
47 1286
47 1287
48 128
48 149
48 170
48 191
48 582
48 598
48 614
48 630
48 1185
48 1189
48 1193
48 1197
48 1324
48 1325
48 1326
48 1327
49 137
49 156
49 163
49 182
49 579
49 595
49 611
49 627
49 1185
49 1189
49 1193
49 1197
49 1288
49 1289
49 1290
49 1291
50 142
50 155
50 164
50 177
50 588
50 604
50 620
50 636
50 1185
50 1189
50 1193
50 1197
50 1300
50 1301
50 1302
50 1303
51 135
51 146
51 173
51 184
51 585
51 601
51 617
51 633
51 1185
51 1189
51 1193
51 1197
51 1328
51 1329
51 1330
51 1331
52 130
52 151
52 168
52 189
52 584
52 600
52 616
52 632
52 1200
52 1204
52 1208
52 1212
52 1324
52 1325
52 1326
52 1327
53 139
53 158
53 161
53 180
53 589
53 605
53 621
53 637
53 1200
53 1204
53 1208
53 1212
53 1288
53 1289
53 1290
53 1291
54 140
54 153
54 166
54 179
54 578
54 594
54 610
54 626
54 1200
54 1204
54 1208
54 1212
54 1300
54 1301
54 1302
54 1303
55 133
55 144
55 175
55 186
55 583
55 599
55 615
55 631
55 1200
55 1204
55 1208
55 1212
55 1328
55 1329
55 1330
55 1331
56 131
56 150
56 169
56 188
56 577
56 593
56 609
56 625
56 1155
56 1159
56 1163
56 1167
56 1324
56 1325
56 1326
56 1327
57 138
57 159
57 160
57 181
57 580
57 596
57 612
57 628
57 1155
57 1159
57 1163
57 1167
57 1288
57 1289
57 1290
57 1291
58 141
58 152
58 167
58 178
58 587
58 603
58 619
58 635
58 1155
58 1159
58 1163
58 1167
58 1300
58 1301
58 1302
58 1303
59 132
59 145
59 174
59 187
59 590
59 606
59 622
59 638
59 1155
59 1159
59 1163
59 1167
59 1328
59 1329
59 1330
59 1331
60 129
60 148
60 171
60 190
60 591
60 607
60 623
60 639
60 1170
60 1174
60 1178
60 1182
60 1324
60 1325
60 1326
60 1327
61 136
61 157
61 162
61 183
61 586
61 602
61 618
61 634
61 1170
61 1174
61 1178
61 1182
61 1288
61 1289
61 1290
61 1291
62 143
62 154
62 165
62 176
62 581
62 597
62 613
62 629
62 1170
62 1174
62 1178
62 1182
62 1300
62 1301
62 1302
62 1303
63 134
63 147
63 172
63 185
63 576
63 592
63 608
63 624
63 1170
63 1174
63 1178
63 1182
63 1328
63 1329
63 1330
63 1331
64 128
64 129
64 130
64 131
64 192
64 213
64 234
64 255
64 832
64 836
64 840
64 844
64 1088
64 1104
64 1120
64 1136
65 132
65 133
65 134
65 135
65 205
65 216
65 231
65 242
65 832
65 836
65 840
65 844
65 1101
65 1117
65 1133
65 1149
66 136
66 137
66 138
66 139
66 198
66 211
66 236
66 249
66 832
66 836
66 840
66 844
66 1094
66 1110
66 1126
66 1142
67 140
67 141
67 142
67 143
67 203
67 222
67 225
67 244
67 832
67 836
67 840
67 844
67 1099
67 1115
67 1131
67 1147
68 128
68 129
68 130
68 131
68 202
68 223
68 224
68 245
68 865
68 869
68 873
68 877
68 1098
68 1114
68 1130
68 1146
69 132
69 133
69 134
69 135
69 199
69 210
69 237
69 248
69 865
69 869
69 873
69 877
69 1095
69 1111
69 1127
69 1143
70 136
70 137
70 138
70 139
70 204
70 217
70 230
70 243
70 865
70 869
70 873
70 877
70 1100
70 1116
70 1132
70 1148
71 140
71 141
71 142
71 143
71 193
71 212
71 235
71 254
71 865
71 869
71 873
71 877
71 1089
71 1105
71 1121
71 1137
72 128
72 129
72 130
72 131
72 207
72 218
72 229
72 240
72 882
72 886
72 890
72 894
72 1103
72 1119
72 1135
72 1151
73 132
73 133
73 134
73 135
73 194
73 215
73 232
73 253
73 882
73 886
73 890
73 894
73 1090
73 1106
73 1122
73 1138
74 136
74 137
74 138
74 139
74 201
74 220
74 227
74 246
74 882
74 886
74 890
74 894
74 1097
74 1113
74 1129
74 1145
75 140
75 141
75 142
75 143
75 196
75 209
75 238
75 251
75 882
75 886
75 890
75 894
75 1092
75 1108
75 1124
75 1140
76 128
76 129
76 130
76 131
76 197
76 208
76 239
76 250
76 851
76 855
76 859
76 863
76 1093
76 1109
76 1125
76 1141
77 132
77 133
77 134
77 135
77 200
77 221
77 226
77 247
77 851
77 855
77 859
77 863
77 1096
77 1112
77 1128
77 1144
78 136
78 137
78 138
78 139
78 195
78 214
78 233
78 252
78 851
78 855
78 859
78 863
78 1091
78 1107
78 1123
78 1139
79 140
79 141
79 142
79 143
79 206
79 219
79 228
79 241
79 851
79 855
79 859
79 863
79 1102
79 1118
79 1134
79 1150
80 152
80 153
80 154
80 155
80 192
80 213
80 234
80 255
80 881
80 885
80 889
80 893
80 1095
80 1111
80 1127
80 1143
81 156
81 157
81 158
81 159
81 205
81 216
81 231
81 242
81 881
81 885
81 889
81 893
81 1098
81 1114
81 1130
81 1146
82 144
82 145
82 146
82 147
82 198
82 211
82 236
82 249
82 881
82 885
82 889
82 893
82 1089
82 1105
82 1121
82 1137
83 148
83 149
83 150
83 151
83 203
83 222
83 225
83 244
83 881
83 885
83 889
83 893
83 1100
83 1116
83 1132
83 1148
84 152
84 153
84 154
84 155
84 202
84 223
84 224
84 245
84 848
84 852
84 856
84 860
84 1101
84 1117
84 1133
84 1149
85 156
85 157
85 158
85 159
85 199
85 210
85 237
85 248
85 848
85 852
85 856
85 860
85 1088
85 1104
85 1120
85 1136
86 144
86 145
86 146
86 147
86 204
86 217
86 230
86 243
86 848
86 852
86 856
86 860
86 1099
86 1115
86 1131
86 1147
87 148
87 149
87 150
87 151
87 193
87 212
87 235
87 254
87 848
87 852
87 856
87 860
87 1094
87 1110
87 1126
87 1142
88 152
88 153
88 154
88 155
88 207
88 218
88 229
88 240
88 835
88 839
88 843
88 847
88 1096
88 1112
88 1128
88 1144
89 156
89 157
89 158
89 159
89 194
89 215
89 232
89 253
89 835
89 839
89 843
89 847
89 1093
89 1109
89 1125
89 1141
90 144
90 145
90 146
90 147
90 201
90 220
90 227
90 246
90 835
90 839
90 843
90 847
90 1102
90 1118
90 1134
90 1150
91 148
91 149
91 150
91 151
91 196
91 209
91 238
91 251
91 835
91 839
91 843
91 847
91 1091
91 1107
91 1123
91 1139
92 152
92 153
92 154
92 155
92 197
92 208
92 239
92 250
92 866
92 870
92 874
92 878
92 1090
92 1106
92 1122
92 1138
93 156
93 157
93 158
93 159
93 200
93 221
93 226
93 247
93 866
93 870
93 874
93 878
93 1103
93 1119
93 1135
93 1151
94 144
94 145
94 146
94 147
94 195
94 214
94 233
94 252
94 866
94 870
94 874
94 878
94 1092
94 1108
94 1124
94 1140
95 148
95 149
95 150
95 151
95 206
95 219
95 228
95 241
95 866
95 870
95 874
95 878
95 1097
95 1113
95 1129
95 1145
96 172
96 173
96 174
96 175
96 192
96 213
96 234
96 255
96 850
96 854
96 858
96 862
96 1097
96 1113
96 1129
96 1145
97 168
97 169
97 170
97 171
97 205
97 216
97 231
97 242
97 850
97 854
97 858
97 862
97 1092
97 1108
97 1124
97 1140
98 164
98 165
98 166
98 167
98 198
98 211
98 236
98 249
98 850
98 854
98 858
98 862
98 1103
98 1119
98 1135
98 1151
99 160
99 161
99 162
99 163
99 203
99 222
99 225
99 244
99 850
99 854
99 858
99 862
99 1090
99 1106
99 1122
99 1138
100 172
100 173
100 174
100 175
100 202
100 223
100 224
100 245
100 883
100 887
100 891
100 895
100 1091
100 1107
100 1123
100 1139
101 168
101 169
101 170
101 171
101 199
101 210
101 237
101 248
101 883
101 887
101 891
101 895
101 1102
101 1118
101 1134
101 1150
102 164
102 165
102 166
102 167
102 204
102 217
102 230
102 243
102 883
102 887
102 891
102 895
102 1093
102 1109
102 1125
102 1141
103 160
103 161
103 162
103 163
103 193
103 212
103 235
103 254
103 883
103 887
103 891
103 895
103 1096
103 1112
103 1128
103 1144
104 172
104 173
104 174
104 175
104 207
104 218
104 229
104 240
104 864
104 868
104 872
104 876
104 1094
104 1110
104 1126
104 1142
105 168
105 169
105 170
105 171
105 194
105 215
105 232
105 253
105 864
105 868
105 872
105 876
105 1099
105 1115
105 1131
105 1147
106 164
106 165
106 166
106 167
106 201
106 220
106 227
106 246
106 864
106 868
106 872
106 876
106 1088
106 1104
106 1120
106 1136
107 160
107 161
107 162
107 163
107 196
107 209
107 238
107 251
107 864
107 868
107 872
107 876
107 1101
107 1117
107 1133
107 1149
108 172
108 173
108 174
108 175
108 197
108 208
108 239
108 250
108 833
108 837
108 841
108 845
108 1100
108 1116
108 1132
108 1148
109 168
109 169
109 170
109 171
109 200
109 221
109 226
109 247
109 833
109 837
109 841
109 845
109 1089
109 1105
109 1121
109 1137
110 164
110 165
110 166
110 167
110 195
110 214
110 233
110 252
110 833
110 837
110 841
110 845
110 1098
110 1114
110 1130
110 1146
111 160
111 161
111 162
111 163
111 206
111 219
111 228
111 241
111 833
111 837
111 841
111 845
111 1095
111 1111
111 1127
111 1143
112 180
112 181
112 182
112 183
112 192
112 213
112 234
112 255
112 867
112 871
112 875
112 879
112 1102
112 1118
112 1134
112 1150
113 176
113 177
113 178
113 179
113 205
113 216
113 231
113 242
113 867
113 871
113 875
113 879
113 1091
113 1107
113 1123
113 1139
114 188
114 189
114 190
114 191
114 198
114 211
114 236
114 249
114 867
114 871
114 875
114 879
114 1096
114 1112
114 1128
114 1144
115 184
115 185
115 186
115 187
115 203
115 222
115 225
115 244
115 867
115 871
115 875
115 879
115 1093
115 1109
115 1125
115 1141
116 180
116 181
116 182
116 183
116 202
116 223
116 224
116 245
116 834
116 838
116 842
116 846
116 1092
116 1108
116 1124
116 1140
117 176
117 177
117 178
117 179
117 199
117 210
117 237
117 248
117 834
117 838
117 842
117 846
117 1097
117 1113
117 1129
117 1145
118 188
118 189
118 190
118 191
118 204
118 217
118 230
118 243
118 834
118 838
118 842
118 846
118 1090
118 1106
118 1122
118 1138
119 184
119 185
119 186
119 187
119 193
119 212
119 235
119 254
119 834
119 838
119 842
119 846
119 1103
119 1119
119 1135
119 1151
120 180
120 181
120 182
120 183
120 207
120 218
120 229
120 240
120 849
120 853
120 857
120 861
120 1089
120 1105
120 1121
120 1137
121 176
121 177
121 178
121 179
121 194
121 215
121 232
121 253
121 849
121 853
121 857
121 861
121 1100
121 1116
121 1132
121 1148
122 188
122 189
122 190
122 191
122 201
122 220
122 227
122 246
122 849
122 853
122 857
122 861
122 1095
122 1111
122 1127
122 1143
123 184
123 185
123 186
123 187
123 196
123 209
123 238
123 251
123 849
123 853
123 857
123 861
123 1098
123 1114
123 1130
123 1146
124 180
124 181
124 182
124 183
124 197
124 208
124 239
124 250
124 880
124 884
124 888
124 892
124 1099
124 1115
124 1131
124 1147
125 176
125 177
125 178
125 179
125 200
125 221
125 226
125 247
125 880
125 884
125 888
125 892
125 1094
125 1110
125 1126
125 1142
126 188
126 189
126 190
126 191
126 195
126 214
126 233
126 252
126 880
126 884
126 888
126 892
126 1101
126 1117
126 1133
126 1149
127 184
127 185
127 186
127 187
127 206
127 219
127 228
127 241
127 880
127 884
127 888
127 892
127 1088
127 1104
127 1120
127 1136
128 704
128 725
128 746
128 767
128 1152
128 1153
128 1154
128 1155
129 713
129 732
129 739
129 758
129 1188
129 1189
129 1190
129 1191
130 718
130 731
130 740
130 753
130 1208
130 1209
130 1210
130 1211
131 711
131 722
131 749
131 760
131 1180
131 1181
131 1182
131 1183
132 717
132 728
132 743
132 754
132 1152
132 1153
132 1154
132 1155
133 708
133 721
133 750
133 763
133 1188
133 1189
133 1190
133 1191
134 707
134 726
134 745
134 764
134 1208
134 1209
134 1210
134 1211
135 714
135 735
135 736
135 757
135 1180
135 1181
135 1182
135 1183
136 710
136 723
136 748
136 761
136 1152
136 1153
136 1154
136 1155
137 719
137 730
137 741
137 752
137 1188
137 1189
137 1190
137 1191
138 712
138 733
138 738
138 759
138 1208
138 1209
138 1210
138 1211
139 705
139 724
139 747
139 766
139 1180
139 1181
139 1182
139 1183
140 715
140 734
140 737
140 756
140 1152
140 1153
140 1154
140 1155
141 706
141 727
141 744
141 765
141 1188
141 1189
141 1190
141 1191
142 709
142 720
142 751
142 762
142 1208
142 1209
142 1210
142 1211
143 716
143 729
143 742
143 755
143 1180
143 1181
143 1182
143 1183
144 704
144 725
144 746
144 767
144 1204
144 1205
144 1206
144 1207
145 713
145 732
145 739
145 758
145 1168
145 1169
145 1170
145 1171
146 718
146 731
146 740
146 753
146 1164
146 1165
146 1166
146 1167
147 711
147 722
147 749
147 760
147 1192
147 1193
147 1194
147 1195
148 717
148 728
148 743
148 754
148 1204
148 1205
148 1206
148 1207
149 708
149 721
149 750
149 763
149 1168
149 1169
149 1170
149 1171
150 707
150 726
150 745
150 764
150 1164
150 1165
150 1166
150 1167
151 714
151 735
151 736
151 757
151 1192
151 1193
151 1194
151 1195
152 710
152 723
152 748
152 761
152 1204
152 1205
152 1206
152 1207
153 719
153 730
153 741
153 752
153 1168
153 1169
153 1170
153 1171
154 712
154 733
154 738
154 759
154 1164
154 1165
154 1166
154 1167
155 705
155 724
155 747
155 766
155 1192
155 1193
155 1194
155 1195
156 715
156 734
156 737
156 756
156 1204
156 1205
156 1206
156 1207
157 706
157 727
157 744
157 765
157 1168
157 1169
157 1170
157 1171
158 709
158 720
158 751
158 762
158 1164
158 1165
158 1166
158 1167
159 716
159 729
159 742
159 755
159 1192
159 1193
159 1194
159 1195
160 704
160 725
160 746
160 767
160 1176
160 1177
160 1178
160 1179
161 713
161 732
161 739
161 758
161 1212
161 1213
161 1214
161 1215
162 718
162 731
162 740
162 753
162 1184
162 1185
162 1186
162 1187
163 711
163 722
163 749
163 760
163 1156
163 1157
163 1158
163 1159
164 717
164 728
164 743
164 754
164 1176
164 1177
164 1178
164 1179
165 708
165 721
165 750
165 763
165 1212
165 1213
165 1214
165 1215
166 707
166 726
166 745
166 764
166 1184
166 1185
166 1186
166 1187
167 714
167 735
167 736
167 757
167 1156
167 1157
167 1158
167 1159
168 710
168 723
168 748
168 761
168 1176
168 1177
168 1178
168 1179
169 719
169 730
169 741
169 752
169 1212
169 1213
169 1214
169 1215
170 712
170 733
170 738
170 759
170 1184
170 1185
170 1186
170 1187
171 705
171 724
171 747
171 766
171 1156
171 1157
171 1158
171 1159
172 715
172 734
172 737
172 756
172 1176
172 1177
172 1178
172 1179
173 706
173 727
173 744
173 765
173 1212
173 1213
173 1214
173 1215
174 709
174 720
174 751
174 762
174 1184
174 1185
174 1186
174 1187
175 716
175 729
175 742
175 755
175 1156
175 1157
175 1158
175 1159
176 704
176 725
176 746
176 767
176 1196
176 1197
176 1198
176 1199
177 713
177 732
177 739
177 758
177 1160
177 1161
177 1162
177 1163
178 718
178 731
178 740
178 753
178 1172
178 1173
178 1174
178 1175
179 711
179 722
179 749
179 760
179 1200
179 1201
179 1202
179 1203
180 717
180 728
180 743
180 754
180 1196
180 1197
180 1198
180 1199
181 708
181 721
181 750
181 763
181 1160
181 1161
181 1162
181 1163
182 707
182 726
182 745
182 764
182 1172
182 1173
182 1174
182 1175
183 714
183 735
183 736
183 757
183 1200
183 1201
183 1202
183 1203
184 710
184 723
184 748
184 761
184 1196
184 1197
184 1198
184 1199
185 719
185 730
185 741
185 752
185 1160
185 1161
185 1162
185 1163
186 712
186 733
186 738
186 759
186 1172
186 1173
186 1174
186 1175
187 705
187 724
187 747
187 766
187 1200
187 1201
187 1202
187 1203
188 715
188 734
188 737
188 756
188 1196
188 1197
188 1198
188 1199
189 706
189 727
189 744
189 765
189 1160
189 1161
189 1162
189 1163
190 709
190 720
190 751
190 762
190 1172
190 1173
190 1174
190 1175
191 716
191 729
191 742
191 755
191 1200
191 1201
191 1202
191 1203
192 320
192 341
192 362
192 383
192 1088
192 1092
192 1096
192 1100
192 1344
192 1345
192 1346
192 1347
193 333
193 344
193 359
193 370
193 1088
193 1092
193 1096
193 1100
193 1380
193 1381
193 1382
193 1383
194 326
194 339
194 364
194 377
194 1088
194 1092
194 1096
194 1100
194 1400
194 1401
194 1402
194 1403
195 331
195 350
195 353
195 372
195 1088
195 1092
195 1096
195 1100
195 1372
195 1373
195 1374
195 1375
196 330
196 351
196 352
196 373
196 1121
196 1125
196 1129
196 1133
196 1344
196 1345
196 1346
196 1347
197 327
197 338
197 365
197 376
197 1121
197 1125
197 1129
197 1133
197 1380
197 1381
197 1382
197 1383
198 332
198 345
198 358
198 371
198 1121
198 1125
198 1129
198 1133
198 1400
198 1401
198 1402
198 1403
199 321
199 340
199 363
199 382
199 1121
199 1125
199 1129
199 1133
199 1372
199 1373
199 1374
199 1375
200 335
200 346
200 357
200 368
200 1138
200 1142
200 1146
200 1150
200 1344
200 1345
200 1346
200 1347
201 322
201 343
201 360
201 381
201 1138
201 1142
201 1146
201 1150
201 1380
201 1381
201 1382
201 1383
202 329
202 348
202 355
202 374
202 1138
202 1142
202 1146
202 1150
202 1400
202 1401
202 1402
202 1403
203 324
203 337
203 366
203 379
203 1138
203 1142
203 1146
203 1150
203 1372
203 1373
203 1374
203 1375
204 325
204 336
204 367
204 378
204 1107
204 1111
204 1115
204 1119
204 1344
204 1345
204 1346
204 1347
205 328
205 349
205 354
205 375
205 1107
205 1111
205 1115
205 1119
205 1380
205 1381
205 1382
205 1383
206 323
206 342
206 361
206 380
206 1107
206 1111
206 1115
206 1119
206 1400
206 1401
206 1402
206 1403
207 334
207 347
207 356
207 369
207 1107
207 1111
207 1115
207 1119
207 1372
207 1373
207 1374
207 1375
208 320
208 341
208 362
208 383
208 1106
208 1110
208 1114
208 1118
208 1360
208 1361
208 1362
208 1363
209 333
209 344
209 359
209 370
209 1106
209 1110
209 1114
209 1118
209 1396
209 1397
209 1398
209 1399
210 326
210 339
210 364
210 377
210 1106
210 1110
210 1114
210 1118
210 1384
210 1385
210 1386
210 1387
211 331
211 350
211 353
211 372
211 1106
211 1110
211 1114
211 1118
211 1356
211 1357
211 1358
211 1359
212 330
212 351
212 352
212 373
212 1139
212 1143
212 1147
212 1151
212 1360
212 1361
212 1362
212 1363
213 327
213 338
213 365
213 376
213 1139
213 1143
213 1147
213 1151
213 1396
213 1397
213 1398
213 1399
214 332
214 345
214 358
214 371
214 1139
214 1143
214 1147
214 1151
214 1384
214 1385
214 1386
214 1387
215 321
215 340
215 363
215 382
215 1139
215 1143
215 1147
215 1151
215 1356
215 1357
215 1358
215 1359
216 335
216 346
216 357
216 368
216 1120
216 1124
216 1128
216 1132
216 1360
216 1361
216 1362
216 1363
217 322
217 343
217 360
217 381
217 1120
217 1124
217 1128
217 1132
217 1396
217 1397
217 1398
217 1399
218 329
218 348
218 355
218 374
218 1120
218 1124
218 1128
218 1132
218 1384
218 1385
218 1386
218 1387
219 324
219 337
219 366
219 379
219 1120
219 1124
219 1128
219 1132
219 1356
219 1357
219 1358
219 1359
220 325
220 336
220 367
220 378
220 1089
220 1093
220 1097
220 1101
220 1360
220 1361
220 1362
220 1363
221 328
221 349
221 354
221 375
221 1089
221 1093
221 1097
221 1101
221 1396
221 1397
221 1398
221 1399
222 323
222 342
222 361
222 380
222 1089
222 1093
222 1097
222 1101
222 1384
222 1385
222 1386
222 1387
223 334
223 347
223 356
223 369
223 1089
223 1093
223 1097
223 1101
223 1356
223 1357
223 1358
223 1359
224 320
224 341
224 362
224 383
224 1123
224 1127
224 1131
224 1135
224 1376
224 1377
224 1378
224 1379
225 333
225 344
225 359
225 370
225 1123
225 1127
225 1131
225 1135
225 1348
225 1349
225 1350
225 1351
226 326
226 339
226 364
226 377
226 1123
226 1127
226 1131
226 1135
226 1368
226 1369
226 1370
226 1371
227 331
227 350
227 353
227 372
227 1123
227 1127
227 1131
227 1135
227 1404
227 1405
227 1406
227 1407
228 330
228 351
228 352
228 373
228 1090
228 1094
228 1098
228 1102
228 1376
228 1377
228 1378
228 1379
229 327
229 338
229 365
229 376
229 1090
229 1094
229 1098
229 1102
229 1348
229 1349
229 1350
229 1351
230 332
230 345
230 358
230 371
230 1090
230 1094
230 1098
230 1102
230 1368
230 1369
230 1370
230 1371
231 321
231 340
231 363
231 382
231 1090
231 1094
231 1098
231 1102
231 1404
231 1405
231 1406
231 1407
232 335
232 346
232 357
232 368
232 1105
232 1109
232 1113
232 1117
232 1376
232 1377
232 1378
232 1379
233 322
233 343
233 360
233 381
233 1105
233 1109
233 1113
233 1117
233 1348
233 1349
233 1350
233 1351
234 329
234 348
234 355
234 374
234 1105
234 1109
234 1113
234 1117
234 1368
234 1369
234 1370
234 1371
235 324
235 337
235 366
235 379
235 1105
235 1109
235 1113
235 1117
235 1404
235 1405
235 1406
235 1407
236 325
236 336
236 367
236 378
236 1136
236 1140
236 1144
236 1148
236 1376
236 1377
236 1378
236 1379
237 328
237 349
237 354
237 375
237 1136
237 1140
237 1144
237 1148
237 1348
237 1349
237 1350
237 1351
238 323
238 342
238 361
238 380
238 1136
238 1140
238 1144
238 1148
238 1368
238 1369
238 1370
238 1371
239 334
239 347
239 356
239 369
239 1136
239 1140
239 1144
239 1148
239 1404
239 1405
239 1406
239 1407
240 320
240 341
240 362
240 383
240 1137
240 1141
240 1145
240 1149
240 1392
240 1393
240 1394
240 1395
241 333
241 344
241 359
241 370
241 1137
241 1141
241 1145
241 1149
241 1364
241 1365
241 1366
241 1367
242 326
242 339
242 364
242 377
242 1137
242 1141
242 1145
242 1149
242 1352
242 1353
242 1354
242 1355
243 331
243 350
243 353
243 372
243 1137
243 1141
243 1145
243 1149
243 1388
243 1389
243 1390
243 1391
244 330
244 351
244 352
244 373
244 1104
244 1108
244 1112
244 1116
244 1392
244 1393
244 1394
244 1395
245 327
245 338
245 365
245 376
245 1104
245 1108
245 1112
245 1116
245 1364
245 1365
245 1366
245 1367
246 332
246 345
246 358
246 371
246 1104
246 1108
246 1112
246 1116
246 1352
246 1353
246 1354
246 1355
247 321
247 340
247 363
247 382
247 1104
247 1108
247 1112
247 1116
247 1388
247 1389
247 1390
247 1391
248 335
248 346
248 357
248 368
248 1091
248 1095
248 1099
248 1103
248 1392
248 1393
248 1394
248 1395
249 322
249 343
249 360
249 381
249 1091
249 1095
249 1099
249 1103
249 1364
249 1365
249 1366
249 1367
250 329
250 348
250 355
250 374
250 1091
250 1095
250 1099
250 1103
250 1352
250 1353
250 1354
250 1355
251 324
251 337
251 366
251 379
251 1091
251 1095
251 1099
251 1103
251 1388
251 1389
251 1390
251 1391
252 325
252 336
252 367
252 378
252 1122
252 1126
252 1130
252 1134
252 1392
252 1393
252 1394
252 1395
253 328
253 349
253 354
253 375
253 1122
253 1126
253 1130
253 1134
253 1364
253 1365
253 1366
253 1367
254 323
254 342
254 361
254 380
254 1122
254 1126
254 1130
254 1134
254 1352
254 1353
254 1354
254 1355
255 334
255 347
255 356
255 369
255 1122
255 1126
255 1130
255 1134
255 1388
255 1389
255 1390
255 1391
256 512
256 528
256 544
256 560
256 640
256 644
256 648
256 652
256 1152
256 1173
256 1194
256 1215
256 1600
256 1601
256 1602
256 1603
257 525
257 541
257 557
257 573
257 640
257 644
257 648
257 652
257 1161
257 1180
257 1187
257 1206
257 1636
257 1637
257 1638
257 1639
258 518
258 534
258 550
258 566
258 640
258 644
258 648
258 652
258 1166
258 1179
258 1188
258 1201
258 1656
258 1657
258 1658
258 1659
259 523
259 539
259 555
259 571
259 640
259 644
259 648
259 652
259 1159
259 1170
259 1197
259 1208
259 1628
259 1629
259 1630
259 1631
260 522
260 538
260 554
260 570
260 656
260 660
260 664
260 668
260 1156
260 1169
260 1198
260 1211
260 1600
260 1601
260 1602
260 1603
261 519
261 535
261 551
261 567
261 656
261 660
261 664
261 668
261 1165
261 1176
261 1191
261 1202
261 1636
261 1637
261 1638
261 1639
262 524
262 540
262 556
262 572
262 656
262 660
262 664
262 668
262 1162
262 1183
262 1184
262 1205
262 1656
262 1657
262 1658
262 1659
263 513
263 529
263 545
263 561
263 656
263 660
263 664
263 668
263 1155
263 1174
263 1193
263 1212
263 1628
263 1629
263 1630
263 1631
264 527
264 543
264 559
264 575
264 672
264 676
264 680
264 684
264 1160
264 1181
264 1186
264 1207
264 1600
264 1601
264 1602
264 1603
265 514
265 530
265 546
265 562
265 672
265 676
265 680
265 684
265 1153
265 1172
265 1195
265 1214
265 1636
265 1637
265 1638
265 1639
266 521
266 537
266 553
266 569
266 672
266 676
266 680
266 684
266 1158
266 1171
266 1196
266 1209
266 1656
266 1657
266 1658
266 1659
267 516
267 532
267 548
267 564
267 672
267 676
267 680
267 684
267 1167
267 1178
267 1189
267 1200
267 1628
267 1629
267 1630
267 1631
268 517
268 533
268 549
268 565
268 688
268 692
268 696
268 700
268 1164
268 1177
268 1190
268 1203
268 1600
268 1601
268 1602
268 1603
269 520
269 536
269 552
269 568
269 688
269 692
269 696
269 700
269 1157
269 1168
269 1199
269 1210
269 1636
269 1637
269 1638
269 1639
270 515
270 531
270 547
270 563
270 688
270 692
270 696
270 700
270 1154
270 1175
270 1192
270 1213
270 1656
270 1657
270 1658
270 1659
271 526
271 542
271 558
271 574
271 688
271 692
271 696
271 700
271 1163
271 1182
271 1185
271 1204
271 1628
271 1629
271 1630
271 1631
272 519
272 535
272 551
272 567
272 673
272 677
272 681
272 685
272 1152
272 1173
272 1194
272 1215
272 1652
272 1653
272 1654
272 1655
273 522
273 538
273 554
273 570
273 673
273 677
273 681
273 685
273 1161
273 1180
273 1187
273 1206
273 1616
273 1617
273 1618
273 1619
274 513
274 529
274 545
274 561
274 673
274 677
274 681
274 685
274 1166
274 1179
274 1188
274 1201
274 1612
274 1613
274 1614
274 1615
275 524
275 540
275 556
275 572
275 673
275 677
275 681
275 685
275 1159
275 1170
275 1197
275 1208
275 1640
275 1641
275 1642
275 1643
276 525
276 541
276 557
276 573
276 689
276 693
276 697
276 701
276 1156
276 1169
276 1198
276 1211
276 1652
276 1653
276 1654
276 1655
277 512
277 528
277 544
277 560
277 689
277 693
277 697
277 701
277 1165
277 1176
277 1191
277 1202
277 1616
277 1617
277 1618
277 1619
278 523
278 539
278 555
278 571
278 689
278 693
278 697
278 701
278 1162
278 1183
278 1184
278 1205
278 1612
278 1613
278 1614
278 1615
279 518
279 534
279 550
279 566
279 689
279 693
279 697
279 701
279 1155
279 1174
279 1193
279 1212
279 1640
279 1641
279 1642
279 1643
280 520
280 536
280 552
280 568
280 641
280 645
280 649
280 653
280 1160
280 1181
280 1186
280 1207
280 1652
280 1653
280 1654
280 1655
281 517
281 533
281 549
281 565
281 641
281 645
281 649
281 653
281 1153
281 1172
281 1195
281 1214
281 1616
281 1617
281 1618
281 1619
282 526
282 542
282 558
282 574
282 641
282 645
282 649
282 653
282 1158
282 1171
282 1196
282 1209
282 1612
282 1613
282 1614
282 1615
283 515
283 531
283 547
283 563
283 641
283 645
283 649
283 653
283 1167
283 1178
283 1189
283 1200
283 1640
283 1641
283 1642
283 1643
284 514
284 530
284 546
284 562
284 657
284 661
284 665
284 669
284 1164
284 1177
284 1190
284 1203
284 1652
284 1653
284 1654
284 1655
285 527
285 543
285 559
285 575
285 657
285 661
285 665
285 669
285 1157
285 1168
285 1199
285 1210
285 1616
285 1617
285 1618
285 1619
286 516
286 532
286 548
286 564
286 657
286 661
286 665
286 669
286 1154
286 1175
286 1192
286 1213
286 1612
286 1613
286 1614
286 1615
287 521
287 537
287 553
287 569
287 657
287 661
287 665
287 669
287 1163
287 1182
287 1185
287 1204
287 1640
287 1641
287 1642
287 1643
288 521
288 537
288 553
288 569
288 690
288 694
288 698
288 702
288 1152
288 1173
288 1194
288 1215
288 1624
288 1625
288 1626
288 1627
289 516
289 532
289 548
289 564
289 690
289 694
289 698
289 702
289 1161
289 1180
289 1187
289 1206
289 1660
289 1661
289 1662
289 1663
290 527
290 543
290 559
290 575
290 690
290 694
290 698
290 702
290 1166
290 1179
290 1188
290 1201
290 1632
290 1633
290 1634
290 1635
291 514
291 530
291 546
291 562
291 690
291 694
291 698
291 702
291 1159
291 1170
291 1197
291 1208
291 1604
291 1605
291 1606
291 1607
292 515
292 531
292 547
292 563
292 674
292 678
292 682
292 686
292 1156
292 1169
292 1198
292 1211
292 1624
292 1625
292 1626
292 1627
293 526
293 542
293 558
293 574
293 674
293 678
293 682
293 686
293 1165
293 1176
293 1191
293 1202
293 1660
293 1661
293 1662
293 1663
294 517
294 533
294 549
294 565
294 674
294 678
294 682
294 686
294 1162
294 1183
294 1184
294 1205
294 1632
294 1633
294 1634
294 1635
295 520
295 536
295 552
295 568
295 674
295 678
295 682
295 686
295 1155
295 1174
295 1193
295 1212
295 1604
295 1605
295 1606
295 1607
296 518
296 534
296 550
296 566
296 658
296 662
296 666
296 670
296 1160
296 1181
296 1186
296 1207
296 1624
296 1625
296 1626
296 1627
297 523
297 539
297 555
297 571
297 658
297 662
297 666
297 670
297 1153
297 1172
297 1195
297 1214
297 1660
297 1661
297 1662
297 1663
298 512
298 528
298 544
298 560
298 658
298 662
298 666
298 670
298 1158
298 1171
298 1196
298 1209
298 1632
298 1633
298 1634
298 1635
299 525
299 541
299 557
299 573
299 658
299 662
299 666
299 670
299 1167
299 1178
299 1189
299 1200
299 1604
299 1605
299 1606
299 1607
300 524
300 540
300 556
300 572
300 642
300 646
300 650
300 654
300 1164
300 1177
300 1190
300 1203
300 1624
300 1625
300 1626
300 1627
301 513
301 529
301 545
301 561
301 642
301 646
301 650
301 654
301 1157
301 1168
301 1199
301 1210
301 1660
301 1661
301 1662
301 1663
302 522
302 538
302 554
302 570
302 642
302 646
302 650
302 654
302 1154
302 1175
302 1192
302 1213
302 1632
302 1633
302 1634
302 1635
303 519
303 535
303 551
303 567
303 642
303 646
303 650
303 654
303 1163
303 1182
303 1185
303 1204
303 1604
303 1605
303 1606
303 1607
304 526
304 542
304 558
304 574
304 659
304 663
304 667
304 671
304 1152
304 1173
304 1194
304 1215
304 1644
304 1645
304 1646
304 1647
305 515
305 531
305 547
305 563
305 659
305 663
305 667
305 671
305 1161
305 1180
305 1187
305 1206
305 1608
305 1609
305 1610
305 1611
306 520
306 536
306 552
306 568
306 659
306 663
306 667
306 671
306 1166
306 1179
306 1188
306 1201
306 1620
306 1621
306 1622
306 1623
307 517
307 533
307 549
307 565
307 659
307 663
307 667
307 671
307 1159
307 1170
307 1197
307 1208
307 1648
307 1649
307 1650
307 1651
308 516
308 532
308 548
308 564
308 643
308 647
308 651
308 655
308 1156
308 1169
308 1198
308 1211
308 1644
308 1645
308 1646
308 1647
309 521
309 537
309 553
309 569
309 643
309 647
309 651
309 655
309 1165
309 1176
309 1191
309 1202
309 1608
309 1609
309 1610
309 1611
310 514
310 530
310 546
310 562
310 643
310 647
310 651
310 655
310 1162
310 1183
310 1184
310 1205
310 1620
310 1621
310 1622
310 1623
311 527
311 543
311 559
311 575
311 643
311 647
311 651
311 655
311 1155
311 1174
311 1193
311 1212
311 1648
311 1649
311 1650
311 1651
312 513
312 529
312 545
312 561
312 691
312 695
312 699
312 703
312 1160
312 1181
312 1186
312 1207
312 1644
312 1645
312 1646
312 1647
313 524
313 540
313 556
313 572
313 691
313 695
313 699
313 703
313 1153
313 1172
313 1195
313 1214
313 1608
313 1609
313 1610
313 1611
314 519
314 535
314 551
314 567
314 691
314 695
314 699
314 703
314 1158
314 1171
314 1196
314 1209
314 1620
314 1621
314 1622
314 1623
315 522
315 538
315 554
315 570
315 691
315 695
315 699
315 703
315 1167
315 1178
315 1189
315 1200
315 1648
315 1649
315 1650
315 1651
316 523
316 539
316 555
316 571
316 675
316 679
316 683
316 687
316 1164
316 1177
316 1190
316 1203
316 1644
316 1645
316 1646
316 1647
317 518
317 534
317 550
317 566
317 675
317 679
317 683
317 687
317 1157
317 1168
317 1199
317 1210
317 1608
317 1609
317 1610
317 1611
318 525
318 541
318 557
318 573
318 675
318 679
318 683
318 687
318 1154
318 1175
318 1192
318 1213
318 1620
318 1621
318 1622
318 1623
319 512
319 528
319 544
319 560
319 675
319 679
319 683
319 687
319 1163
319 1182
319 1185
319 1204
319 1648
319 1649
319 1650
319 1651
320 768
320 789
320 810
320 831
320 960
320 961
320 962
320 963
320 1856
320 1860
320 1864
320 1868
321 781
321 792
321 807
321 818
321 996
321 997
321 998
321 999
321 1856
321 1860
321 1864
321 1868
322 774
322 787
322 812
322 825
322 1016
322 1017
322 1018
322 1019
322 1856
322 1860
322 1864
322 1868
323 779
323 798
323 801
323 820
323 988
323 989
323 990
323 991
323 1856
323 1860
323 1864
323 1868
324 782
324 795
324 804
324 817
324 960
324 961
324 962
324 963
324 1889
324 1893
324 1897
324 1901
325 771
325 790
325 809
325 828
325 996
325 997
325 998
325 999
325 1889
325 1893
325 1897
325 1901
326 776
326 797
326 802
326 823
326 1016
326 1017
326 1018
326 1019
326 1889
326 1893
326 1897
326 1901
327 773
327 784
327 815
327 826
327 988
327 989
327 990
327 991
327 1889
327 1893
327 1897
327 1901
328 775
328 786
328 813
328 824
328 960
328 961
328 962
328 963
328 1906
328 1910
328 1914
328 1918
329 778
329 799
329 800
329 821
329 996
329 997
329 998
329 999
329 1906
329 1910
329 1914
329 1918
330 769
330 788
330 811
330 830
330 1016
330 1017
330 1018
330 1019
330 1906
330 1910
330 1914
330 1918
331 780
331 793
331 806
331 819
331 988
331 989
331 990
331 991
331 1906
331 1910
331 1914
331 1918
332 777
332 796
332 803
332 822
332 960
332 961
332 962
332 963
332 1875
332 1879
332 1883
332 1887
333 772
333 785
333 814
333 827
333 996
333 997
333 998
333 999
333 1875
333 1879
333 1883
333 1887
334 783
334 794
334 805
334 816
334 1016
334 1017
334 1018
334 1019
334 1875
334 1879
334 1883
334 1887
335 770
335 791
335 808
335 829
335 988
335 989
335 990
335 991
335 1875
335 1879
335 1883
335 1887
336 768
336 789
336 810
336 831
336 1012
336 1013
336 1014
336 1015
336 1905
336 1909
336 1913
336 1917
337 781
337 792
337 807
337 818
337 976
337 977
337 978
337 979
337 1905
337 1909
337 1913
337 1917
338 774
338 787
338 812
338 825
338 972
338 973
338 974
338 975
338 1905
338 1909
338 1913
338 1917
339 779
339 798
339 801
339 820
339 1000
339 1001
339 1002
339 1003
339 1905
339 1909
339 1913
339 1917
340 782
340 795
340 804
340 817
340 1012
340 1013
340 1014
340 1015
340 1872
340 1876
340 1880
340 1884
341 771
341 790
341 809
341 828
341 976
341 977
341 978
341 979
341 1872
341 1876
341 1880
341 1884
342 776
342 797
342 802
342 823
342 972
342 973
342 974
342 975
342 1872
342 1876
342 1880
342 1884
343 773
343 784
343 815
343 826
343 1000
343 1001
343 1002
343 1003
343 1872
343 1876
343 1880
343 1884
344 775
344 786
344 813
344 824
344 1012
344 1013
344 1014
344 1015
344 1859
344 1863
344 1867
344 1871
345 778
345 799
345 800
345 821
345 976
345 977
345 978
345 979
345 1859
345 1863
345 1867
345 1871
346 769
346 788
346 811
346 830
346 972
346 973
346 974
346 975
346 1859
346 1863
346 1867
346 1871
347 780
347 793
347 806
347 819
347 1000
347 1001
347 1002
347 1003
347 1859
347 1863
347 1867
347 1871
348 777
348 796
348 803
348 822
348 1012
348 1013
348 1014
348 1015
348 1890
348 1894
348 1898
348 1902
349 772
349 785
349 814
349 827
349 976
349 977
349 978
349 979
349 1890
349 1894
349 1898
349 1902
350 783
350 794
350 805
350 816
350 972
350 973
350 974
350 975
350 1890
350 1894
350 1898
350 1902
351 770
351 791
351 808
351 829
351 1000
351 1001
351 1002
351 1003
351 1890
351 1894
351 1898
351 1902
352 768
352 789
352 810
352 831
352 984
352 985
352 986
352 987
352 1874
352 1878
352 1882
352 1886
353 781
353 792
353 807
353 818
353 1020
353 1021
353 1022
353 1023
353 1874
353 1878
353 1882
353 1886
354 774
354 787
354 812
354 825
354 992
354 993
354 994
354 995
354 1874
354 1878
354 1882
354 1886
355 779
355 798
355 801
355 820
355 964
355 965
355 966
355 967
355 1874
355 1878
355 1882
355 1886
356 782
356 795
356 804
356 817
356 984
356 985
356 986
356 987
356 1907
356 1911
356 1915
356 1919
357 771
357 790
357 809
357 828
357 1020
357 1021
357 1022
357 1023
357 1907
357 1911
357 1915
357 1919
358 776
358 797
358 802
358 823
358 992
358 993
358 994
358 995
358 1907
358 1911
358 1915
358 1919
359 773
359 784
359 815
359 826
359 964
359 965
359 966
359 967
359 1907
359 1911
359 1915
359 1919
360 775
360 786
360 813
360 824
360 984
360 985
360 986
360 987
360 1888
360 1892
360 1896
360 1900
361 778
361 799
361 800
361 821
361 1020
361 1021
361 1022
361 1023
361 1888
361 1892
361 1896
361 1900
362 769
362 788
362 811
362 830
362 992
362 993
362 994
362 995
362 1888
362 1892
362 1896
362 1900
363 780
363 793
363 806
363 819
363 964
363 965
363 966
363 967
363 1888
363 1892
363 1896
363 1900
364 777
364 796
364 803
364 822
364 984
364 985
364 986
364 987
364 1857
364 1861
364 1865
364 1869
365 772
365 785
365 814
365 827
365 1020
365 1021
365 1022
365 1023
365 1857
365 1861
365 1865
365 1869
366 783
366 794
366 805
366 816
366 992
366 993
366 994
366 995
366 1857
366 1861
366 1865
366 1869
367 770
367 791
367 808
367 829
367 964
367 965
367 966
367 967
367 1857
367 1861
367 1865
367 1869
368 768
368 789
368 810
368 831
368 1004
368 1005
368 1006
368 1007
368 1891
368 1895
368 1899
368 1903
369 781
369 792
369 807
369 818
369 968
369 969
369 970
369 971
369 1891
369 1895
369 1899
369 1903
370 774
370 787
370 812
370 825
370 980
370 981
370 982
370 983
370 1891
370 1895
370 1899
370 1903
371 779
371 798
371 801
371 820
371 1008
371 1009
371 1010
371 1011
371 1891
371 1895
371 1899
371 1903
372 782
372 795
372 804
372 817
372 1004
372 1005
372 1006
372 1007
372 1858
372 1862
372 1866
372 1870
373 771
373 790
373 809
373 828
373 968
373 969
373 970
373 971
373 1858
373 1862
373 1866
373 1870
374 776
374 797
374 802
374 823
374 980
374 981
374 982
374 983
374 1858
374 1862
374 1866
374 1870
375 773
375 784
375 815
375 826
375 1008
375 1009
375 1010
375 1011
375 1858
375 1862
375 1866
375 1870
376 775
376 786
376 813
376 824
376 1004
376 1005
376 1006
376 1007
376 1873
376 1877
376 1881
376 1885
377 778
377 799
377 800
377 821
377 968
377 969
377 970
377 971
377 1873
377 1877
377 1881
377 1885
378 769
378 788
378 811
378 830
378 980
378 981
378 982
378 983
378 1873
378 1877
378 1881
378 1885
379 780
379 793
379 806
379 819
379 1008
379 1009
379 1010
379 1011
379 1873
379 1877
379 1881
379 1885
380 777
380 796
380 803
380 822
380 1004
380 1005
380 1006
380 1007
380 1904
380 1908
380 1912
380 1916
381 772
381 785
381 814
381 827
381 968
381 969
381 970
381 971
381 1904
381 1908
381 1912
381 1916
382 783
382 794
382 805
382 816
382 980
382 981
382 982
382 983
382 1904
382 1908
382 1912
382 1916
383 770
383 791
383 808
383 829
383 1008
383 1009
383 1010
383 1011
383 1904
383 1908
383 1912
383 1916
384 960
384 964
384 968
384 972
384 1024
384 1040
384 1056
384 1072
384 1344
384 1365
384 1386
384 1407
384 1408
384 1409
384 1410
384 1411
385 960
385 964
385 968
385 972
385 1037
385 1053
385 1069
385 1085
385 1353
385 1372
385 1379
385 1398
385 1460
385 1461
385 1462
385 1463
386 960
386 964
386 968
386 972
386 1030
386 1046
386 1062
386 1078
386 1358
386 1371
386 1380
386 1393
386 1432
386 1433
386 1434
386 1435
387 960
387 964
387 968
387 972
387 1035
387 1051
387 1067
387 1083
387 1351
387 1362
387 1389
387 1400
387 1452
387 1453
387 1454
387 1455
388 961
388 965
388 969
388 973
388 1038
388 1054
388 1070
388 1086
388 1348
388 1361
388 1390
388 1403
388 1408
388 1409
388 1410
388 1411
389 961
389 965
389 969
389 973
389 1027
389 1043
389 1059
389 1075
389 1357
389 1368
389 1383
389 1394
389 1460
389 1461
389 1462
389 1463
390 961
390 965
390 969
390 973
390 1032
390 1048
390 1064
390 1080
390 1354
390 1375
390 1376
390 1397
390 1432
390 1433
390 1434
390 1435
391 961
391 965
391 969
391 973
391 1029
391 1045
391 1061
391 1077
391 1347
391 1366
391 1385
391 1404
391 1452
391 1453
391 1454
391 1455
392 962
392 966
392 970
392 974
392 1031
392 1047
392 1063
392 1079
392 1352
392 1373
392 1378
392 1399
392 1408
392 1409
392 1410
392 1411
393 962
393 966
393 970
393 974
393 1034
393 1050
393 1066
393 1082
393 1345
393 1364
393 1387
393 1406
393 1460
393 1461
393 1462
393 1463
394 962
394 966
394 970
394 974
394 1025
394 1041
394 1057
394 1073
394 1350
394 1363
394 1388
394 1401
394 1432
394 1433
394 1434
394 1435
395 962
395 966
395 970
395 974
395 1036
395 1052
395 1068
395 1084
395 1359
395 1370
395 1381
395 1392
395 1452
395 1453
395 1454
395 1455
396 963
396 967
396 971
396 975
396 1033
396 1049
396 1065
396 1081
396 1356
396 1369
396 1382
396 1395
396 1408
396 1409
396 1410
396 1411
397 963
397 967
397 971
397 975
397 1028
397 1044
397 1060
397 1076
397 1349
397 1360
397 1391
397 1402
397 1460
397 1461
397 1462
397 1463
398 963
398 967
398 971
398 975
398 1039
398 1055
398 1071
398 1087
398 1346
398 1367
398 1384
398 1405
398 1432
398 1433
398 1434
398 1435
399 963
399 967
399 971
399 975
399 1026
399 1042
399 1058
399 1074
399 1355
399 1374
399 1377
399 1396
399 1452
399 1453
399 1454
399 1455
400 978
400 982
400 986
400 990
400 1027
400 1043
400 1059
400 1075
400 1344
400 1365
400 1386
400 1407
400 1464
400 1465
400 1466
400 1467
401 978
401 982
401 986
401 990
401 1038
401 1054
401 1070
401 1086
401 1353
401 1372
401 1379
401 1398
401 1420
401 1421
401 1422
401 1423
402 978
402 982
402 986
402 990
402 1029
402 1045
402 1061
402 1077
402 1358
402 1371
402 1380
402 1393
402 1440
402 1441
402 1442
402 1443
403 978
403 982
403 986
403 990
403 1032
403 1048
403 1064
403 1080
403 1351
403 1362
403 1389
403 1400
403 1428
403 1429
403 1430
403 1431
404 979
404 983
404 987
404 991
404 1037
404 1053
404 1069
404 1085
404 1348
404 1361
404 1390
404 1403
404 1464
404 1465
404 1466
404 1467
405 979
405 983
405 987
405 991
405 1024
405 1040
405 1056
405 1072
405 1357
405 1368
405 1383
405 1394
405 1420
405 1421
405 1422
405 1423
406 979
406 983
406 987
406 991
406 1035
406 1051
406 1067
406 1083
406 1354
406 1375
406 1376
406 1397
406 1440
406 1441
406 1442
406 1443
407 979
407 983
407 987
407 991
407 1030
407 1046
407 1062
407 1078
407 1347
407 1366
407 1385
407 1404
407 1428
407 1429
407 1430
407 1431
408 976
408 980
408 984
408 988
408 1028
408 1044
408 1060
408 1076
408 1352
408 1373
408 1378
408 1399
408 1464
408 1465
408 1466
408 1467
409 976
409 980
409 984
409 988
409 1033
409 1049
409 1065
409 1081
409 1345
409 1364
409 1387
409 1406
409 1420
409 1421
409 1422
409 1423
410 976
410 980
410 984
410 988
410 1026
410 1042
410 1058
410 1074
410 1350
410 1363
410 1388
410 1401
410 1440
410 1441
410 1442
410 1443
411 976
411 980
411 984
411 988
411 1039
411 1055
411 1071
411 1087
411 1359
411 1370
411 1381
411 1392
411 1428
411 1429
411 1430
411 1431
412 977
412 981
412 985
412 989
412 1034
412 1050
412 1066
412 1082
412 1356
412 1369
412 1382
412 1395
412 1464
412 1465
412 1466
412 1467
413 977
413 981
413 985
413 989
413 1031
413 1047
413 1063
413 1079
413 1349
413 1360
413 1391
413 1402
413 1420
413 1421
413 1422
413 1423
414 977
414 981
414 985
414 989
414 1036
414 1052
414 1068
414 1084
414 1346
414 1367
414 1384
414 1405
414 1440
414 1441
414 1442
414 1443
415 977
415 981
415 985
415 989
415 1025
415 1041
415 1057
415 1073
415 1355
415 1374
415 1377
415 1396
415 1428
415 1429
415 1430
415 1431
416 995
416 999
416 1003
416 1007
416 1025
416 1041
416 1057
416 1073
416 1344
416 1365
416 1386
416 1407
416 1436
416 1437
416 1438
416 1439
417 995
417 999
417 1003
417 1007
417 1036
417 1052
417 1068
417 1084
417 1353
417 1372
417 1379
417 1398
417 1448
417 1449
417 1450
417 1451
418 995
418 999
418 1003
418 1007
418 1031
418 1047
418 1063
418 1079
418 1358
418 1371
418 1380
418 1393
418 1412
418 1413
418 1414
418 1415
419 995
419 999
419 1003
419 1007
419 1034
419 1050
419 1066
419 1082
419 1351
419 1362
419 1389
419 1400
419 1456
419 1457
419 1458
419 1459
420 994
420 998
420 1002
420 1006
420 1039
420 1055
420 1071
420 1087
420 1348
420 1361
420 1390
420 1403
420 1436
420 1437
420 1438
420 1439
421 994
421 998
421 1002
421 1006
421 1026
421 1042
421 1058
421 1074
421 1357
421 1368
421 1383
421 1394
421 1448
421 1449
421 1450
421 1451
422 994
422 998
422 1002
422 1006
422 1033
422 1049
422 1065
422 1081
422 1354
422 1375
422 1376
422 1397
422 1412
422 1413
422 1414
422 1415
423 994
423 998
423 1002
423 1006
423 1028
423 1044
423 1060
423 1076
423 1347
423 1366
423 1385
423 1404
423 1456
423 1457
423 1458
423 1459
424 993
424 997
424 1001
424 1005
424 1030
424 1046
424 1062
424 1078
424 1352
424 1373
424 1378
424 1399
424 1436
424 1437
424 1438
424 1439
425 993
425 997
425 1001
425 1005
425 1035
425 1051
425 1067
425 1083
425 1345
425 1364
425 1387
425 1406
425 1448
425 1449
425 1450
425 1451
426 993
426 997
426 1001
426 1005
426 1024
426 1040
426 1056
426 1072
426 1350
426 1363
426 1388
426 1401
426 1412
426 1413
426 1414
426 1415
427 993
427 997
427 1001
427 1005
427 1037
427 1053
427 1069
427 1085
427 1359
427 1370
427 1381
427 1392
427 1456
427 1457
427 1458
427 1459
428 992
428 996
428 1000
428 1004
428 1032
428 1048
428 1064
428 1080
428 1356
428 1369
428 1382
428 1395
428 1436
428 1437
428 1438
428 1439
429 992
429 996
429 1000
429 1004
429 1029
429 1045
429 1061
429 1077
429 1349
429 1360
429 1391
429 1402
429 1448
429 1449
429 1450
429 1451
430 992
430 996
430 1000
430 1004
430 1038
430 1054
430 1070
430 1086
430 1346
430 1367
430 1384
430 1405
430 1412
430 1413
430 1414
430 1415
431 992
431 996
431 1000
431 1004
431 1027
431 1043
431 1059
431 1075
431 1355
431 1374
431 1377
431 1396
431 1456
431 1457
431 1458
431 1459
432 1009
432 1013
432 1017
432 1021
432 1026
432 1042
432 1058
432 1074
432 1344
432 1365
432 1386
432 1407
432 1444
432 1445
432 1446
432 1447
433 1009
433 1013
433 1017
433 1021
433 1039
433 1055
433 1071
433 1087
433 1353
433 1372
433 1379
433 1398
433 1424
433 1425
433 1426
433 1427
434 1009
434 1013
434 1017
434 1021
434 1028
434 1044
434 1060
434 1076
434 1358
434 1371
434 1380
434 1393
434 1468
434 1469
434 1470
434 1471
435 1009
435 1013
435 1017
435 1021
435 1033
435 1049
435 1065
435 1081
435 1351
435 1362
435 1389
435 1400
435 1416
435 1417
435 1418
435 1419
436 1008
436 1012
436 1016
436 1020
436 1036
436 1052
436 1068
436 1084
436 1348
436 1361
436 1390
436 1403
436 1444
436 1445
436 1446
436 1447
437 1008
437 1012
437 1016
437 1020
437 1025
437 1041
437 1057
437 1073
437 1357
437 1368
437 1383
437 1394
437 1424
437 1425
437 1426
437 1427
438 1008
438 1012
438 1016
438 1020
438 1034
438 1050
438 1066
438 1082
438 1354
438 1375
438 1376
438 1397
438 1468
438 1469
438 1470
438 1471
439 1008
439 1012
439 1016
439 1020
439 1031
439 1047
439 1063
439 1079
439 1347
439 1366
439 1385
439 1404
439 1416
439 1417
439 1418
439 1419
440 1011
440 1015
440 1019
440 1023
440 1029
440 1045
440 1061
440 1077
440 1352
440 1373
440 1378
440 1399
440 1444
440 1445
440 1446
440 1447
441 1011
441 1015
441 1019
441 1023
441 1032
441 1048
441 1064
441 1080
441 1345
441 1364
441 1387
441 1406
441 1424
441 1425
441 1426
441 1427
442 1011
442 1015
442 1019
442 1023
442 1027
442 1043
442 1059
442 1075
442 1350
442 1363
442 1388
442 1401
442 1468
442 1469
442 1470
442 1471
443 1011
443 1015
443 1019
443 1023
443 1038
443 1054
443 1070
443 1086
443 1359
443 1370
443 1381
443 1392
443 1416
443 1417
443 1418
443 1419
444 1010
444 1014
444 1018
444 1022
444 1035
444 1051
444 1067
444 1083
444 1356
444 1369
444 1382
444 1395
444 1444
444 1445
444 1446
444 1447
445 1010
445 1014
445 1018
445 1022
445 1030
445 1046
445 1062
445 1078
445 1349
445 1360
445 1391
445 1402
445 1424
445 1425
445 1426
445 1427
446 1010
446 1014
446 1018
446 1022
446 1037
446 1053
446 1069
446 1085
446 1346
446 1367
446 1384
446 1405
446 1468
446 1469
446 1470
446 1471
447 1010
447 1014
447 1018
447 1022
447 1024
447 1040
447 1056
447 1072
447 1355
447 1374
447 1377
447 1396
447 1416
447 1417
447 1418
447 1419
448 832
448 848
448 864
448 880
448 1024
448 1028
448 1032
448 1036
448 1600
448 1621
448 1642
448 1663
448 1728
448 1729
448 1730
448 1731
449 837
449 853
449 869
449 885
449 1024
449 1028
449 1032
449 1036
449 1613
449 1624
449 1639
449 1650
449 1780
449 1781
449 1782
449 1783
450 842
450 858
450 874
450 890
450 1024
450 1028
450 1032
450 1036
450 1606
450 1619
450 1644
450 1657
450 1752
450 1753
450 1754
450 1755
451 847
451 863
451 879
451 895
451 1024
451 1028
451 1032
451 1036
451 1611
451 1630
451 1633
451 1652
451 1772
451 1773
451 1774
451 1775
452 846
452 862
452 878
452 894
452 1025
452 1029
452 1033
452 1037
452 1610
452 1631
452 1632
452 1653
452 1728
452 1729
452 1730
452 1731
453 843
453 859
453 875
453 891
453 1025
453 1029
453 1033
453 1037
453 1607
453 1618
453 1645
453 1656
453 1780
453 1781
453 1782
453 1783
454 836
454 852
454 868
454 884
454 1025
454 1029
454 1033
454 1037
454 1612
454 1625
454 1638
454 1651
454 1752
454 1753
454 1754
454 1755
455 833
455 849
455 865
455 881
455 1025
455 1029
455 1033
455 1037
455 1601
455 1620
455 1643
455 1662
455 1772
455 1773
455 1774
455 1775
456 839
456 855
456 871
456 887
456 1026
456 1030
456 1034
456 1038
456 1615
456 1626
456 1637
456 1648
456 1728
456 1729
456 1730
456 1731
457 834
457 850
457 866
457 882
457 1026
457 1030
457 1034
457 1038
457 1602
457 1623
457 1640
457 1661
457 1780
457 1781
457 1782
457 1783
458 845
458 861
458 877
458 893
458 1026
458 1030
458 1034
458 1038
458 1609
458 1628
458 1635
458 1654
458 1752
458 1753
458 1754
458 1755
459 840
459 856
459 872
459 888
459 1026
459 1030
459 1034
459 1038
459 1604
459 1617
459 1646
459 1659
459 1772
459 1773
459 1774
459 1775
460 841
460 857
460 873
460 889
460 1027
460 1031
460 1035
460 1039
460 1605
460 1616
460 1647
460 1658
460 1728
460 1729
460 1730
460 1731
461 844
461 860
461 876
461 892
461 1027
461 1031
461 1035
461 1039
461 1608
461 1629
461 1634
461 1655
461 1780
461 1781
461 1782
461 1783
462 835
462 851
462 867
462 883
462 1027
462 1031
462 1035
462 1039
462 1603
462 1622
462 1641
462 1660
462 1752
462 1753
462 1754
462 1755
463 838
463 854
463 870
463 886
463 1027
463 1031
463 1035
463 1039
463 1614
463 1627
463 1636
463 1649
463 1772
463 1773
463 1774
463 1775
464 843
464 859
464 875
464 891
464 1042
464 1046
464 1050
464 1054
464 1600
464 1621
464 1642
464 1663
464 1784
464 1785
464 1786
464 1787
465 846
465 862
465 878
465 894
465 1042
465 1046
465 1050
465 1054
465 1613
465 1624
465 1639
465 1650
465 1740
465 1741
465 1742
465 1743
466 833
466 849
466 865
466 881
466 1042
466 1046
466 1050
466 1054
466 1606
466 1619
466 1644
466 1657
466 1760
466 1761
466 1762
466 1763
467 836
467 852
467 868
467 884
467 1042
467 1046
467 1050
467 1054
467 1611
467 1630
467 1633
467 1652
467 1748
467 1749
467 1750
467 1751
468 837
468 853
468 869
468 885
468 1043
468 1047
468 1051
468 1055
468 1610
468 1631
468 1632
468 1653
468 1784
468 1785
468 1786
468 1787
469 832
469 848
469 864
469 880
469 1043
469 1047
469 1051
469 1055
469 1607
469 1618
469 1645
469 1656
469 1740
469 1741
469 1742
469 1743
470 847
470 863
470 879
470 895
470 1043
470 1047
470 1051
470 1055
470 1612
470 1625
470 1638
470 1651
470 1760
470 1761
470 1762
470 1763
471 842
471 858
471 874
471 890
471 1043
471 1047
471 1051
471 1055
471 1601
471 1620
471 1643
471 1662
471 1748
471 1749
471 1750
471 1751
472 844
472 860
472 876
472 892
472 1040
472 1044
472 1048
472 1052
472 1615
472 1626
472 1637
472 1648
472 1784
472 1785
472 1786
472 1787
473 841
473 857
473 873
473 889
473 1040
473 1044
473 1048
473 1052
473 1602
473 1623
473 1640
473 1661
473 1740
473 1741
473 1742
473 1743
474 838
474 854
474 870
474 886
474 1040
474 1044
474 1048
474 1052
474 1609
474 1628
474 1635
474 1654
474 1760
474 1761
474 1762
474 1763
475 835
475 851
475 867
475 883
475 1040
475 1044
475 1048
475 1052
475 1604
475 1617
475 1646
475 1659
475 1748
475 1749
475 1750
475 1751
476 834
476 850
476 866
476 882
476 1041
476 1045
476 1049
476 1053
476 1605
476 1616
476 1647
476 1658
476 1784
476 1785
476 1786
476 1787
477 839
477 855
477 871
477 887
477 1041
477 1045
477 1049
477 1053
477 1608
477 1629
477 1634
477 1655
477 1740
477 1741
477 1742
477 1743
478 840
478 856
478 872
478 888
478 1041
478 1045
478 1049
478 1053
478 1603
478 1622
478 1641
478 1660
478 1760
478 1761
478 1762
478 1763
479 845
479 861
479 877
479 893
479 1041
479 1045
479 1049
479 1053
479 1614
479 1627
479 1636
479 1649
479 1748
479 1749
479 1750
479 1751
480 845
480 861
480 877
480 893
480 1059
480 1063
480 1067
480 1071
480 1600
480 1621
480 1642
480 1663
480 1756
480 1757
480 1758
480 1759
481 840
481 856
481 872
481 888
481 1059
481 1063
481 1067
481 1071
481 1613
481 1624
481 1639
481 1650
481 1768
481 1769
481 1770
481 1771
482 839
482 855
482 871
482 887
482 1059
482 1063
482 1067
482 1071
482 1606
482 1619
482 1644
482 1657
482 1732
482 1733
482 1734
482 1735
483 834
483 850
483 866
483 882
483 1059
483 1063
483 1067
483 1071
483 1611
483 1630
483 1633
483 1652
483 1776
483 1777
483 1778
483 1779
484 835
484 851
484 867
484 883
484 1058
484 1062
484 1066
484 1070
484 1610
484 1631
484 1632
484 1653
484 1756
484 1757
484 1758
484 1759
485 838
485 854
485 870
485 886
485 1058
485 1062
485 1066
485 1070
485 1607
485 1618
485 1645
485 1656
485 1768
485 1769
485 1770
485 1771
486 841
486 857
486 873
486 889
486 1058
486 1062
486 1066
486 1070
486 1612
486 1625
486 1638
486 1651
486 1732
486 1733
486 1734
486 1735
487 844
487 860
487 876
487 892
487 1058
487 1062
487 1066
487 1070
487 1601
487 1620
487 1643
487 1662
487 1776
487 1777
487 1778
487 1779
488 842
488 858
488 874
488 890
488 1057
488 1061
488 1065
488 1069
488 1615
488 1626
488 1637
488 1648
488 1756
488 1757
488 1758
488 1759
489 847
489 863
489 879
489 895
489 1057
489 1061
489 1065
489 1069
489 1602
489 1623
489 1640
489 1661
489 1768
489 1769
489 1770
489 1771
490 832
490 848
490 864
490 880
490 1057
490 1061
490 1065
490 1069
490 1609
490 1628
490 1635
490 1654
490 1732
490 1733
490 1734
490 1735
491 837
491 853
491 869
491 885
491 1057
491 1061
491 1065
491 1069
491 1604
491 1617
491 1646
491 1659
491 1776
491 1777
491 1778
491 1779
492 836
492 852
492 868
492 884
492 1056
492 1060
492 1064
492 1068
492 1605
492 1616
492 1647
492 1658
492 1756
492 1757
492 1758
492 1759
493 833
493 849
493 865
493 881
493 1056
493 1060
493 1064
493 1068
493 1608
493 1629
493 1634
493 1655
493 1768
493 1769
493 1770
493 1771
494 846
494 862
494 878
494 894
494 1056
494 1060
494 1064
494 1068
494 1603
494 1622
494 1641
494 1660
494 1732
494 1733
494 1734
494 1735
495 843
495 859
495 875
495 891
495 1056
495 1060
495 1064
495 1068
495 1614
495 1627
495 1636
495 1649
495 1776
495 1777
495 1778
495 1779
496 838
496 854
496 870
496 886
496 1073
496 1077
496 1081
496 1085
496 1600
496 1621
496 1642
496 1663
496 1764
496 1765
496 1766
496 1767
497 835
497 851
497 867
497 883
497 1073
497 1077
497 1081
497 1085
497 1613
497 1624
497 1639
497 1650
497 1744
497 1745
497 1746
497 1747
498 844
498 860
498 876
498 892
498 1073
498 1077
498 1081
498 1085
498 1606
498 1619
498 1644
498 1657
498 1788
498 1789
498 1790
498 1791
499 841
499 857
499 873
499 889
499 1073
499 1077
499 1081
499 1085
499 1611
499 1630
499 1633
499 1652
499 1736
499 1737
499 1738
499 1739
500 840
500 856
500 872
500 888
500 1072
500 1076
500 1080
500 1084
500 1610
500 1631
500 1632
500 1653
500 1764
500 1765
500 1766
500 1767
501 845
501 861
501 877
501 893
501 1072
501 1076
501 1080
501 1084
501 1607
501 1618
501 1645
501 1656
501 1744
501 1745
501 1746
501 1747
502 834
502 850
502 866
502 882
502 1072
502 1076
502 1080
502 1084
502 1612
502 1625
502 1638
502 1651
502 1788
502 1789
502 1790
502 1791
503 839
503 855
503 871
503 887
503 1072
503 1076
503 1080
503 1084
503 1601
503 1620
503 1643
503 1662
503 1736
503 1737
503 1738
503 1739
504 833
504 849
504 865
504 881
504 1075
504 1079
504 1083
504 1087
504 1615
504 1626
504 1637
504 1648
504 1764
504 1765
504 1766
504 1767
505 836
505 852
505 868
505 884
505 1075
505 1079
505 1083
505 1087
505 1602
505 1623
505 1640
505 1661
505 1744
505 1745
505 1746
505 1747
506 843
506 859
506 875
506 891
506 1075
506 1079
506 1083
506 1087
506 1609
506 1628
506 1635
506 1654
506 1788
506 1789
506 1790
506 1791
507 846
507 862
507 878
507 894
507 1075
507 1079
507 1083
507 1087
507 1604
507 1617
507 1646
507 1659
507 1736
507 1737
507 1738
507 1739
508 847
508 863
508 879
508 895
508 1074
508 1078
508 1082
508 1086
508 1605
508 1616
508 1647
508 1658
508 1764
508 1765
508 1766
508 1767
509 842
509 858
509 874
509 890
509 1074
509 1078
509 1082
509 1086
509 1608
509 1629
509 1634
509 1655
509 1744
509 1745
509 1746
509 1747
510 837
510 853
510 869
510 885
510 1074
510 1078
510 1082
510 1086
510 1603
510 1622
510 1641
510 1660
510 1788
510 1789
510 1790
510 1791
511 832
511 848
511 864
511 880
511 1074
511 1078
511 1082
511 1086
511 1614
511 1627
511 1636
511 1649
511 1736
511 1737
511 1738
511 1739
512 640
512 641
512 642
512 643
512 768
512 784
512 800
512 816
512 1344
512 1348
512 1352
512 1356
513 676
513 677
513 678
513 679
513 777
513 793
513 809
513 825
513 1344
513 1348
513 1352
513 1356
514 696
514 697
514 698
514 699
514 782
514 798
514 814
514 830
514 1344
514 1348
514 1352
514 1356
515 668
515 669
515 670
515 671
515 775
515 791
515 807
515 823
515 1344
515 1348
515 1352
515 1356
516 640
516 641
516 642
516 643
516 770
516 786
516 802
516 818
516 1377
516 1381
516 1385
516 1389
517 676
517 677
517 678
517 679
517 779
517 795
517 811
517 827
517 1377
517 1381
517 1385
517 1389
518 696
518 697
518 698
518 699
518 780
518 796
518 812
518 828
518 1377
518 1381
518 1385
518 1389
519 668
519 669
519 670
519 671
519 773
519 789
519 805
519 821
519 1377
519 1381
519 1385
519 1389
520 640
520 641
520 642
520 643
520 771
520 787
520 803
520 819
520 1394
520 1398
520 1402
520 1406
521 676
521 677
521 678
521 679
521 778
521 794
521 810
521 826
521 1394
521 1398
521 1402
521 1406
522 696
522 697
522 698
522 699
522 781
522 797
522 813
522 829
522 1394
522 1398
522 1402
522 1406
523 668
523 669
523 670
523 671
523 772
523 788
523 804
523 820
523 1394
523 1398
523 1402
523 1406
524 640
524 641
524 642
524 643
524 769
524 785
524 801
524 817
524 1363
524 1367
524 1371
524 1375
525 676
525 677
525 678
525 679
525 776
525 792
525 808
525 824
525 1363
525 1367
525 1371
525 1375
526 696
526 697
526 698
526 699
526 783
526 799
526 815
526 831
526 1363
526 1367
526 1371
526 1375
527 668
527 669
527 670
527 671
527 774
527 790
527 806
527 822
527 1363
527 1367
527 1371
527 1375
528 664
528 665
528 666
528 667
528 779
528 795
528 811
528 827
528 1362
528 1366
528 1370
528 1374
529 700
529 701
529 702
529 703
529 770
529 786
529 802
529 818
529 1362
529 1366
529 1370
529 1374
530 672
530 673
530 674
530 675
530 773
530 789
530 805
530 821
530 1362
530 1366
530 1370
530 1374
531 644
531 645
531 646
531 647
531 780
531 796
531 812
531 828
531 1362
531 1366
531 1370
531 1374
532 664
532 665
532 666
532 667
532 777
532 793
532 809
532 825
532 1395
532 1399
532 1403
532 1407
533 700
533 701
533 702
533 703
533 768
533 784
533 800
533 816
533 1395
533 1399
533 1403
533 1407
534 672
534 673
534 674
534 675
534 775
534 791
534 807
534 823
534 1395
534 1399
534 1403
534 1407
535 644
535 645
535 646
535 647
535 782
535 798
535 814
535 830
535 1395
535 1399
535 1403
535 1407
536 664
536 665
536 666
536 667
536 776
536 792
536 808
536 824
536 1376
536 1380
536 1384
536 1388
537 700
537 701
537 702
537 703
537 769
537 785
537 801
537 817
537 1376
537 1380
537 1384
537 1388
538 672
538 673
538 674
538 675
538 774
538 790
538 806
538 822
538 1376
538 1380
538 1384
538 1388
539 644
539 645
539 646
539 647
539 783
539 799
539 815
539 831
539 1376
539 1380
539 1384
539 1388
540 664
540 665
540 666
540 667
540 778
540 794
540 810
540 826
540 1345
540 1349
540 1353
540 1357
541 700
541 701
541 702
541 703
541 771
541 787
541 803
541 819
541 1345
541 1349
541 1353
541 1357
542 672
542 673
542 674
542 675
542 772
542 788
542 804
542 820
542 1345
542 1349
542 1353
542 1357
543 644
543 645
543 646
543 647
543 781
543 797
543 813
543 829
543 1345
543 1349
543 1353
543 1357
544 684
544 685
544 686
544 687
544 781
544 797
544 813
544 829
544 1379
544 1383
544 1387
544 1391
545 648
545 649
545 650
545 651
545 772
545 788
545 804
545 820
545 1379
545 1383
545 1387
545 1391
546 660
546 661
546 662
546 663
546 771
546 787
546 803
546 819
546 1379
546 1383
546 1387
546 1391
547 688
547 689
547 690
547 691
547 778
547 794
547 810
547 826
547 1379
547 1383
547 1387
547 1391
548 684
548 685
548 686
548 687
548 783
548 799
548 815
548 831
548 1346
548 1350
548 1354
548 1358
549 648
549 649
549 650
549 651
549 774
549 790
549 806
549 822
549 1346
549 1350
549 1354
549 1358
550 660
550 661
550 662
550 663
550 769
550 785
550 801
550 817
550 1346
550 1350
550 1354
550 1358
551 688
551 689
551 690
551 691
551 776
551 792
551 808
551 824
551 1346
551 1350
551 1354
551 1358
552 684
552 685
552 686
552 687
552 782
552 798
552 814
552 830
552 1361
552 1365
552 1369
552 1373
553 648
553 649
553 650
553 651
553 775
553 791
553 807
553 823
553 1361
553 1365
553 1369
553 1373
554 660
554 661
554 662
554 663
554 768
554 784
554 800
554 816
554 1361
554 1365
554 1369
554 1373
555 688
555 689
555 690
555 691
555 777
555 793
555 809
555 825
555 1361
555 1365
555 1369
555 1373
556 684
556 685
556 686
556 687
556 780
556 796
556 812
556 828
556 1392
556 1396
556 1400
556 1404
557 648
557 649
557 650
557 651
557 773
557 789
557 805
557 821
557 1392
557 1396
557 1400
557 1404
558 660
558 661
558 662
558 663
558 770
558 786
558 802
558 818
558 1392
558 1396
558 1400
558 1404
559 688
559 689
559 690
559 691
559 779
559 795
559 811
559 827
559 1392
559 1396
559 1400
559 1404
560 692
560 693
560 694
560 695
560 774
560 790
560 806
560 822
560 1393
560 1397
560 1401
560 1405
561 656
561 657
561 658
561 659
561 783
561 799
561 815
561 831
561 1393
561 1397
561 1401
561 1405
562 652
562 653
562 654
562 655
562 776
562 792
562 808
562 824
562 1393
562 1397
562 1401
562 1405
563 680
563 681
563 682
563 683
563 769
563 785
563 801
563 817
563 1393
563 1397
563 1401
563 1405
564 692
564 693
564 694
564 695
564 772
564 788
564 804
564 820
564 1360
564 1364
564 1368
564 1372
565 656
565 657
565 658
565 659
565 781
565 797
565 813
565 829
565 1360
565 1364
565 1368
565 1372
566 652
566 653
566 654
566 655
566 778
566 794
566 810
566 826
566 1360
566 1364
566 1368
566 1372
567 680
567 681
567 682
567 683
567 771
567 787
567 803
567 819
567 1360
567 1364
567 1368
567 1372
568 692
568 693
568 694
568 695
568 773
568 789
568 805
568 821
568 1347
568 1351
568 1355
568 1359
569 656
569 657
569 658
569 659
569 780
569 796
569 812
569 828
569 1347
569 1351
569 1355
569 1359
570 652
570 653
570 654
570 655
570 779
570 795
570 811
570 827
570 1347
570 1351
570 1355
570 1359
571 680
571 681
571 682
571 683
571 770
571 786
571 802
571 818
571 1347
571 1351
571 1355
571 1359
572 692
572 693
572 694
572 695
572 775
572 791
572 807
572 823
572 1378
572 1382
572 1386
572 1390
573 656
573 657
573 658
573 659
573 782
573 798
573 814
573 830
573 1378
573 1382
573 1386
573 1390
574 652
574 653
574 654
574 655
574 777
574 793
574 809
574 825
574 1378
574 1382
574 1386
574 1390
575 680
575 681
575 682
575 683
575 768
575 784
575 800
575 816
575 1378
575 1382
575 1386
575 1390
576 896
576 912
576 928
576 944
576 1216
576 1217
576 1218
576 1219
576 1408
576 1412
576 1416
576 1420
577 900
577 916
577 932
577 948
577 1268
577 1269
577 1270
577 1271
577 1408
577 1412
577 1416
577 1420
578 904
578 920
578 936
578 952
578 1240
578 1241
578 1242
578 1243
578 1408
578 1412
578 1416
578 1420
579 908
579 924
579 940
579 956
579 1260
579 1261
579 1262
579 1263
579 1408
579 1412
579 1416
579 1420
580 905
580 921
580 937
580 953
580 1216
580 1217
580 1218
580 1219
580 1409
580 1413
580 1417
580 1421
581 909
581 925
581 941
581 957
581 1268
581 1269
581 1270
581 1271
581 1409
581 1413
581 1417
581 1421
582 897
582 913
582 929
582 945
582 1240
582 1241
582 1242
582 1243
582 1409
582 1413
582 1417
582 1421
583 901
583 917
583 933
583 949
583 1260
583 1261
583 1262
583 1263
583 1409
583 1413
583 1417
583 1421
584 910
584 926
584 942
584 958
584 1216
584 1217
584 1218
584 1219
584 1410
584 1414
584 1418
584 1422
585 906
585 922
585 938
585 954
585 1268
585 1269
585 1270
585 1271
585 1410
585 1414
585 1418
585 1422
586 902
586 918
586 934
586 950
586 1240
586 1241
586 1242
586 1243
586 1410
586 1414
586 1418
586 1422
587 898
587 914
587 930
587 946
587 1260
587 1261
587 1262
587 1263
587 1410
587 1414
587 1418
587 1422
588 903
588 919
588 935
588 951
588 1216
588 1217
588 1218
588 1219
588 1411
588 1415
588 1419
588 1423
589 899
589 915
589 931
589 947
589 1268
589 1269
589 1270
589 1271
589 1411
589 1415
589 1419
589 1423
590 911
590 927
590 943
590 959
590 1240
590 1241
590 1242
590 1243
590 1411
590 1415
590 1419
590 1423
591 907
591 923
591 939
591 955
591 1260
591 1261
591 1262
591 1263
591 1411
591 1415
591 1419
591 1423
592 909
592 925
592 941
592 957
592 1256
592 1257
592 1258
592 1259
592 1426
592 1430
592 1434
592 1438
593 905
593 921
593 937
593 953
593 1244
593 1245
593 1246
593 1247
593 1426
593 1430
593 1434
593 1438
594 901
594 917
594 933
594 949
594 1264
594 1265
594 1266
594 1267
594 1426
594 1430
594 1434
594 1438
595 897
595 913
595 929
595 945
595 1220
595 1221
595 1222
595 1223
595 1426
595 1430
595 1434
595 1438
596 900
596 916
596 932
596 948
596 1256
596 1257
596 1258
596 1259
596 1427
596 1431
596 1435
596 1439
597 896
597 912
597 928
597 944
597 1244
597 1245
597 1246
597 1247
597 1427
597 1431
597 1435
597 1439
598 908
598 924
598 940
598 956
598 1264
598 1265
598 1266
598 1267
598 1427
598 1431
598 1435
598 1439
599 904
599 920
599 936
599 952
599 1220
599 1221
599 1222
599 1223
599 1427
599 1431
599 1435
599 1439
600 899
600 915
600 931
600 947
600 1256
600 1257
600 1258
600 1259
600 1424
600 1428
600 1432
600 1436
601 903
601 919
601 935
601 951
601 1244
601 1245
601 1246
601 1247
601 1424
601 1428
601 1432
601 1436
602 907
602 923
602 939
602 955
602 1264
602 1265
602 1266
602 1267
602 1424
602 1428
602 1432
602 1436
603 911
603 927
603 943
603 959
603 1220
603 1221
603 1222
603 1223
603 1424
603 1428
603 1432
603 1436
604 906
604 922
604 938
604 954
604 1256
604 1257
604 1258
604 1259
604 1425
604 1429
604 1433
604 1437
605 910
605 926
605 942
605 958
605 1244
605 1245
605 1246
605 1247
605 1425
605 1429
605 1433
605 1437
606 898
606 914
606 930
606 946
606 1264
606 1265
606 1266
606 1267
606 1425
606 1429
606 1433
606 1437
607 902
607 918
607 934
607 950
607 1220
607 1221
607 1222
607 1223
607 1425
607 1429
607 1433
607 1437
608 902
608 918
608 934
608 950
608 1276
608 1277
608 1278
608 1279
608 1443
608 1447
608 1451
608 1455
609 898
609 914
609 930
609 946
609 1224
609 1225
609 1226
609 1227
609 1443
609 1447
609 1451
609 1455
610 910
610 926
610 942
610 958
610 1252
610 1253
610 1254
610 1255
610 1443
610 1447
610 1451
610 1455
611 906
611 922
611 938
611 954
611 1232
611 1233
611 1234
611 1235
611 1443
611 1447
611 1451
611 1455
612 911
612 927
612 943
612 959
612 1276
612 1277
612 1278
612 1279
612 1442
612 1446
612 1450
612 1454
613 907
613 923
613 939
613 955
613 1224
613 1225
613 1226
613 1227
613 1442
613 1446
613 1450
613 1454
614 903
614 919
614 935
614 951
614 1252
614 1253
614 1254
614 1255
614 1442
614 1446
614 1450
614 1454
615 899
615 915
615 931
615 947
615 1232
615 1233
615 1234
615 1235
615 1442
615 1446
615 1450
615 1454
616 904
616 920
616 936
616 952
616 1276
616 1277
616 1278
616 1279
616 1441
616 1445
616 1449
616 1453
617 908
617 924
617 940
617 956
617 1224
617 1225
617 1226
617 1227
617 1441
617 1445
617 1449
617 1453
618 896
618 912
618 928
618 944
618 1252
618 1253
618 1254
618 1255
618 1441
618 1445
618 1449
618 1453
619 900
619 916
619 932
619 948
619 1232
619 1233
619 1234
619 1235
619 1441
619 1445
619 1449
619 1453
620 897
620 913
620 929
620 945
620 1276
620 1277
620 1278
620 1279
620 1440
620 1444
620 1448
620 1452
621 901
621 917
621 933
621 949
621 1224
621 1225
621 1226
621 1227
621 1440
621 1444
621 1448
621 1452
622 905
622 921
622 937
622 953
622 1252
622 1253
622 1254
622 1255
622 1440
622 1444
622 1448
622 1452
623 909
623 925
623 941
623 957
623 1232
623 1233
623 1234
623 1235
623 1440
623 1444
623 1448
623 1452
624 907
624 923
624 939
624 955
624 1236
624 1237
624 1238
624 1239
624 1457
624 1461
624 1465
624 1469
625 911
625 927
625 943
625 959
625 1248
625 1249
625 1250
625 1251
625 1457
625 1461
625 1465
625 1469
626 899
626 915
626 931
626 947
626 1228
626 1229
626 1230
626 1231
626 1457
626 1461
626 1465
626 1469
627 903
627 919
627 935
627 951
627 1272
627 1273
627 1274
627 1275
627 1457
627 1461
627 1465
627 1469
628 898
628 914
628 930
628 946
628 1236
628 1237
628 1238
628 1239
628 1456
628 1460
628 1464
628 1468
629 902
629 918
629 934
629 950
629 1248
629 1249
629 1250
629 1251
629 1456
629 1460
629 1464
629 1468
630 906
630 922
630 938
630 954
630 1228
630 1229
630 1230
630 1231
630 1456
630 1460
630 1464
630 1468
631 910
631 926
631 942
631 958
631 1272
631 1273
631 1274
631 1275
631 1456
631 1460
631 1464
631 1468
632 901
632 917
632 933
632 949
632 1236
632 1237
632 1238
632 1239
632 1459
632 1463
632 1467
632 1471
633 897
633 913
633 929
633 945
633 1248
633 1249
633 1250
633 1251
633 1459
633 1463
633 1467
633 1471
634 909
634 925
634 941
634 957
634 1228
634 1229
634 1230
634 1231
634 1459
634 1463
634 1467
634 1471
635 905
635 921
635 937
635 953
635 1272
635 1273
635 1274
635 1275
635 1459
635 1463
635 1467
635 1471
636 908
636 924
636 940
636 956
636 1236
636 1237
636 1238
636 1239
636 1458
636 1462
636 1466
636 1470
637 904
637 920
637 936
637 952
637 1248
637 1249
637 1250
637 1251
637 1458
637 1462
637 1466
637 1470
638 900
638 916
638 932
638 948
638 1228
638 1229
638 1230
638 1231
638 1458
638 1462
638 1466
638 1470
639 896
639 912
639 928
639 944
639 1272
639 1273
639 1274
639 1275
639 1458
639 1462
639 1466
639 1470
640 1216
640 1237
640 1258
640 1279
640 1536
640 1552
640 1568
640 1584
641 1225
641 1244
641 1251
641 1270
641 1540
641 1556
641 1572
641 1588
642 1230
642 1243
642 1252
642 1265
642 1544
642 1560
642 1576
642 1592
643 1223
643 1234
643 1261
643 1272
643 1548
643 1564
643 1580
643 1596
644 1220
644 1233
644 1262
644 1275
644 1545
644 1561
644 1577
644 1593
645 1229
645 1240
645 1255
645 1266
645 1549
645 1565
645 1581
645 1597
646 1226
646 1247
646 1248
646 1269
646 1537
646 1553
646 1569
646 1585
647 1219
647 1238
647 1257
647 1276
647 1541
647 1557
647 1573
647 1589
648 1224
648 1245
648 1250
648 1271
648 1550
648 1566
648 1582
648 1598
649 1217
649 1236
649 1259
649 1278
649 1546
649 1562
649 1578
649 1594
650 1222
650 1235
650 1260
650 1273
650 1542
650 1558
650 1574
650 1590
651 1231
651 1242
651 1253
651 1264
651 1538
651 1554
651 1570
651 1586
652 1228
652 1241
652 1254
652 1267
652 1543
652 1559
652 1575
652 1591
653 1221
653 1232
653 1263
653 1274
653 1539
653 1555
653 1571
653 1587
654 1218
654 1239
654 1256
654 1277
654 1551
654 1567
654 1583
654 1599
655 1227
655 1246
655 1249
655 1268
655 1547
655 1563
655 1579
655 1595
656 1216
656 1237
656 1258
656 1279
656 1549
656 1565
656 1581
656 1597
657 1225
657 1244
657 1251
657 1270
657 1545
657 1561
657 1577
657 1593
658 1230
658 1243
658 1252
658 1265
658 1541
658 1557
658 1573
658 1589
659 1223
659 1234
659 1261
659 1272
659 1537
659 1553
659 1569
659 1585
660 1220
660 1233
660 1262
660 1275
660 1540
660 1556
660 1572
660 1588
661 1229
661 1240
661 1255
661 1266
661 1536
661 1552
661 1568
661 1584
662 1226
662 1247
662 1248
662 1269
662 1548
662 1564
662 1580
662 1596
663 1219
663 1238
663 1257
663 1276
663 1544
663 1560
663 1576
663 1592
664 1224
664 1245
664 1250
664 1271
664 1539
664 1555
664 1571
664 1587
665 1217
665 1236
665 1259
665 1278
665 1543
665 1559
665 1575
665 1591
666 1222
666 1235
666 1260
666 1273
666 1547
666 1563
666 1579
666 1595
667 1231
667 1242
667 1253
667 1264
667 1551
667 1567
667 1583
667 1599
668 1228
668 1241
668 1254
668 1267
668 1546
668 1562
668 1578
668 1594
669 1221
669 1232
669 1263
669 1274
669 1550
669 1566
669 1582
669 1598
670 1218
670 1239
670 1256
670 1277
670 1538
670 1554
670 1570
670 1586
671 1227
671 1246
671 1249
671 1268
671 1542
671 1558
671 1574
671 1590
672 1216
672 1237
672 1258
672 1279
672 1542
672 1558
672 1574
672 1590
673 1225
673 1244
673 1251
673 1270
673 1538
673 1554
673 1570
673 1586
674 1230
674 1243
674 1252
674 1265
674 1550
674 1566
674 1582
674 1598
675 1223
675 1234
675 1261
675 1272
675 1546
675 1562
675 1578
675 1594
676 1220
676 1233
676 1262
676 1275
676 1551
676 1567
676 1583
676 1599
677 1229
677 1240
677 1255
677 1266
677 1547
677 1563
677 1579
677 1595
678 1226
678 1247
678 1248
678 1269
678 1543
678 1559
678 1575
678 1591
679 1219
679 1238
679 1257
679 1276
679 1539
679 1555
679 1571
679 1587
680 1224
680 1245
680 1250
680 1271
680 1544
680 1560
680 1576
680 1592
681 1217
681 1236
681 1259
681 1278
681 1548
681 1564
681 1580
681 1596
682 1222
682 1235
682 1260
682 1273
682 1536
682 1552
682 1568
682 1584
683 1231
683 1242
683 1253
683 1264
683 1540
683 1556
683 1572
683 1588
684 1228
684 1241
684 1254
684 1267
684 1537
684 1553
684 1569
684 1585
685 1221
685 1232
685 1263
685 1274
685 1541
685 1557
685 1573
685 1589
686 1218
686 1239
686 1256
686 1277
686 1545
686 1561
686 1577
686 1593
687 1227
687 1246
687 1249
687 1268
687 1549
687 1565
687 1581
687 1597
688 1216
688 1237
688 1258
688 1279
688 1547
688 1563
688 1579
688 1595
689 1225
689 1244
689 1251
689 1270
689 1551
689 1567
689 1583
689 1599
690 1230
690 1243
690 1252
690 1265
690 1539
690 1555
690 1571
690 1587
691 1223
691 1234
691 1261
691 1272
691 1543
691 1559
691 1575
691 1591
692 1220
692 1233
692 1262
692 1275
692 1538
692 1554
692 1570
692 1586
693 1229
693 1240
693 1255
693 1266
693 1542
693 1558
693 1574
693 1590
694 1226
694 1247
694 1248
694 1269
694 1546
694 1562
694 1578
694 1594
695 1219
695 1238
695 1257
695 1276
695 1550
695 1566
695 1582
695 1598
696 1224
696 1245
696 1250
696 1271
696 1541
696 1557
696 1573
696 1589
697 1217
697 1236
697 1259
697 1278
697 1537
697 1553
697 1569
697 1585
698 1222
698 1235
698 1260
698 1273
698 1549
698 1565
698 1581
698 1597
699 1231
699 1242
699 1253
699 1264
699 1545
699 1561
699 1577
699 1593
700 1228
700 1241
700 1254
700 1267
700 1548
700 1564
700 1580
700 1596
701 1221
701 1232
701 1263
701 1274
701 1544
701 1560
701 1576
701 1592
702 1218
702 1239
702 1256
702 1277
702 1540
702 1556
702 1572
702 1588
703 1227
703 1246
703 1249
703 1268
703 1536
703 1552
703 1568
703 1584
704 1024
704 1045
704 1066
704 1087
704 1472
704 1476
704 1480
704 1484
704 1664
704 1665
704 1666
704 1667
705 1028
705 1041
705 1070
705 1083
705 1472
705 1476
705 1480
705 1484
705 1700
705 1701
705 1702
705 1703
706 1032
706 1053
706 1058
706 1079
706 1472
706 1476
706 1480
706 1484
706 1720
706 1721
706 1722
706 1723
707 1036
707 1049
707 1062
707 1075
707 1472
707 1476
707 1480
707 1484
707 1692
707 1693
707 1694
707 1695
708 1033
708 1052
708 1059
708 1078
708 1488
708 1492
708 1496
708 1500
708 1664
708 1665
708 1666
708 1667
709 1037
709 1048
709 1063
709 1074
709 1488
709 1492
709 1496
709 1500
709 1700
709 1701
709 1702
709 1703
710 1025
710 1044
710 1067
710 1086
710 1488
710 1492
710 1496
710 1500
710 1720
710 1721
710 1722
710 1723
711 1029
711 1040
711 1071
711 1082
711 1488
711 1492
711 1496
711 1500
711 1692
711 1693
711 1694
711 1695
712 1038
712 1051
712 1060
712 1073
712 1504
712 1508
712 1512
712 1516
712 1664
712 1665
712 1666
712 1667
713 1034
713 1055
713 1056
713 1077
713 1504
713 1508
713 1512
713 1516
713 1700
713 1701
713 1702
713 1703
714 1030
714 1043
714 1068
714 1081
714 1504
714 1508
714 1512
714 1516
714 1720
714 1721
714 1722
714 1723
715 1026
715 1047
715 1064
715 1085
715 1504
715 1508
715 1512
715 1516
715 1692
715 1693
715 1694
715 1695
716 1031
716 1042
716 1069
716 1080
716 1520
716 1524
716 1528
716 1532
716 1664
716 1665
716 1666
716 1667
717 1027
717 1046
717 1065
717 1084
717 1520
717 1524
717 1528
717 1532
717 1700
717 1701
717 1702
717 1703
718 1039
718 1050
718 1061
718 1072
718 1520
718 1524
718 1528
718 1532
718 1720
718 1721
718 1722
718 1723
719 1035
719 1054
719 1057
719 1076
719 1520
719 1524
719 1528
719 1532
719 1692
719 1693
719 1694
719 1695
720 1024
720 1045
720 1066
720 1087
720 1505
720 1509
720 1513
720 1517
720 1688
720 1689
720 1690
720 1691
721 1028
721 1041
721 1070
721 1083
721 1505
721 1509
721 1513
721 1517
721 1724
721 1725
721 1726
721 1727
722 1032
722 1053
722 1058
722 1079
722 1505
722 1509
722 1513
722 1517
722 1696
722 1697
722 1698
722 1699
723 1036
723 1049
723 1062
723 1075
723 1505
723 1509
723 1513
723 1517
723 1668
723 1669
723 1670
723 1671
724 1033
724 1052
724 1059
724 1078
724 1521
724 1525
724 1529
724 1533
724 1688
724 1689
724 1690
724 1691
725 1037
725 1048
725 1063
725 1074
725 1521
725 1525
725 1529
725 1533
725 1724
725 1725
725 1726
725 1727
726 1025
726 1044
726 1067
726 1086
726 1521
726 1525
726 1529
726 1533
726 1696
726 1697
726 1698
726 1699
727 1029
727 1040
727 1071
727 1082
727 1521
727 1525
727 1529
727 1533
727 1668
727 1669
727 1670
727 1671
728 1038
728 1051
728 1060
728 1073
728 1473
728 1477
728 1481
728 1485
728 1688
728 1689
728 1690
728 1691
729 1034
729 1055
729 1056
729 1077
729 1473
729 1477
729 1481
729 1485
729 1724
729 1725
729 1726
729 1727
730 1030
730 1043
730 1068
730 1081
730 1473
730 1477
730 1481
730 1485
730 1696
730 1697
730 1698
730 1699
731 1026
731 1047
731 1064
731 1085
731 1473
731 1477
731 1481
731 1485
731 1668
731 1669
731 1670
731 1671
732 1031
732 1042
732 1069
732 1080
732 1489
732 1493
732 1497
732 1501
732 1688
732 1689
732 1690
732 1691
733 1027
733 1046
733 1065
733 1084
733 1489
733 1493
733 1497
733 1501
733 1724
733 1725
733 1726
733 1727
734 1039
734 1050
734 1061
734 1072
734 1489
734 1493
734 1497
734 1501
734 1696
734 1697
734 1698
734 1699
735 1035
735 1054
735 1057
735 1076
735 1489
735 1493
735 1497
735 1501
735 1668
735 1669
735 1670
735 1671
736 1024
736 1045
736 1066
736 1087
736 1522
736 1526
736 1530
736 1534
736 1708
736 1709
736 1710
736 1711
737 1028
737 1041
737 1070
737 1083
737 1522
737 1526
737 1530
737 1534
737 1672
737 1673
737 1674
737 1675
738 1032
738 1053
738 1058
738 1079
738 1522
738 1526
738 1530
738 1534
738 1684
738 1685
738 1686
738 1687
739 1036
739 1049
739 1062
739 1075
739 1522
739 1526
739 1530
739 1534
739 1712
739 1713
739 1714
739 1715
740 1033
740 1052
740 1059
740 1078
740 1506
740 1510
740 1514
740 1518
740 1708
740 1709
740 1710
740 1711
741 1037
741 1048
741 1063
741 1074
741 1506
741 1510
741 1514
741 1518
741 1672
741 1673
741 1674
741 1675
742 1025
742 1044
742 1067
742 1086
742 1506
742 1510
742 1514
742 1518
742 1684
742 1685
742 1686
742 1687
743 1029
743 1040
743 1071
743 1082
743 1506
743 1510
743 1514
743 1518
743 1712
743 1713
743 1714
743 1715
744 1038
744 1051
744 1060
744 1073
744 1490
744 1494
744 1498
744 1502
744 1708
744 1709
744 1710
744 1711
745 1034
745 1055
745 1056
745 1077
745 1490
745 1494
745 1498
745 1502
745 1672
745 1673
745 1674
745 1675
746 1030
746 1043
746 1068
746 1081
746 1490
746 1494
746 1498
746 1502
746 1684
746 1685
746 1686
746 1687
747 1026
747 1047
747 1064
747 1085
747 1490
747 1494
747 1498
747 1502
747 1712
747 1713
747 1714
747 1715
748 1031
748 1042
748 1069
748 1080
748 1474
748 1478
748 1482
748 1486
748 1708
748 1709
748 1710
748 1711
749 1027
749 1046
749 1065
749 1084
749 1474
749 1478
749 1482
749 1486
749 1672
749 1673
749 1674
749 1675
750 1039
750 1050
750 1061
750 1072
750 1474
750 1478
750 1482
750 1486
750 1684
750 1685
750 1686
750 1687
751 1035
751 1054
751 1057
751 1076
751 1474
751 1478
751 1482
751 1486
751 1712
751 1713
751 1714
751 1715
752 1024
752 1045
752 1066
752 1087
752 1491
752 1495
752 1499
752 1503
752 1716
752 1717
752 1718
752 1719
753 1028
753 1041
753 1070
753 1083
753 1491
753 1495
753 1499
753 1503
753 1680
753 1681
753 1682
753 1683
754 1032
754 1053
754 1058
754 1079
754 1491
754 1495
754 1499
754 1503
754 1676
754 1677
754 1678
754 1679
755 1036
755 1049
755 1062
755 1075
755 1491
755 1495
755 1499
755 1503
755 1704
755 1705
755 1706
755 1707
756 1033
756 1052
756 1059
756 1078
756 1475
756 1479
756 1483
756 1487
756 1716
756 1717
756 1718
756 1719
757 1037
757 1048
757 1063
757 1074
757 1475
757 1479
757 1483
757 1487
757 1680
757 1681
757 1682
757 1683
758 1025
758 1044
758 1067
758 1086
758 1475
758 1479
758 1483
758 1487
758 1676
758 1677
758 1678
758 1679
759 1029
759 1040
759 1071
759 1082
759 1475
759 1479
759 1483
759 1487
759 1704
759 1705
759 1706
759 1707
760 1038
760 1051
760 1060
760 1073
760 1523
760 1527
760 1531
760 1535
760 1716
760 1717
760 1718
760 1719
761 1034
761 1055
761 1056
761 1077
761 1523
761 1527
761 1531
761 1535
761 1680
761 1681
761 1682
761 1683
762 1030
762 1043
762 1068
762 1081
762 1523
762 1527
762 1531
762 1535
762 1676
762 1677
762 1678
762 1679
763 1026
763 1047
763 1064
763 1085
763 1523
763 1527
763 1531
763 1535
763 1704
763 1705
763 1706
763 1707
764 1031
764 1042
764 1069
764 1080
764 1507
764 1511
764 1515
764 1519
764 1716
764 1717
764 1718
764 1719
765 1027
765 1046
765 1065
765 1084
765 1507
765 1511
765 1515
765 1519
765 1680
765 1681
765 1682
765 1683
766 1039
766 1050
766 1061
766 1072
766 1507
766 1511
766 1515
766 1519
766 1676
766 1677
766 1678
766 1679
767 1035
767 1054
767 1057
767 1076
767 1507
767 1511
767 1515
767 1519
767 1704
767 1705
767 1706
767 1707
768 1472
768 1473
768 1474
768 1475
768 1792
768 1796
768 1800
768 1804
769 1524
769 1525
769 1526
769 1527
769 1792
769 1796
769 1800
769 1804
770 1496
770 1497
770 1498
770 1499
770 1792
770 1796
770 1800
770 1804
771 1516
771 1517
771 1518
771 1519
771 1792
771 1796
771 1800
771 1804
772 1472
772 1473
772 1474
772 1475
772 1825
772 1829
772 1833
772 1837
773 1524
773 1525
773 1526
773 1527
773 1825
773 1829
773 1833
773 1837
774 1496
774 1497
774 1498
774 1499
774 1825
774 1829
774 1833
774 1837
775 1516
775 1517
775 1518
775 1519
775 1825
775 1829
775 1833
775 1837
776 1472
776 1473
776 1474
776 1475
776 1842
776 1846
776 1850
776 1854
777 1524
777 1525
777 1526
777 1527
777 1842
777 1846
777 1850
777 1854
778 1496
778 1497
778 1498
778 1499
778 1842
778 1846
778 1850
778 1854
779 1516
779 1517
779 1518
779 1519
779 1842
779 1846
779 1850
779 1854
780 1472
780 1473
780 1474
780 1475
780 1811
780 1815
780 1819
780 1823
781 1524
781 1525
781 1526
781 1527
781 1811
781 1815
781 1819
781 1823
782 1496
782 1497
782 1498
782 1499
782 1811
782 1815
782 1819
782 1823
783 1516
783 1517
783 1518
783 1519
783 1811
783 1815
783 1819
783 1823
784 1512
784 1513
784 1514
784 1515
784 1794
784 1798
784 1802
784 1806
785 1500
785 1501
785 1502
785 1503
785 1794
785 1798
785 1802
785 1806
786 1520
786 1521
786 1522
786 1523
786 1794
786 1798
786 1802
786 1806
787 1476
787 1477
787 1478
787 1479
787 1794
787 1798
787 1802
787 1806
788 1512
788 1513
788 1514
788 1515
788 1827
788 1831
788 1835
788 1839
789 1500
789 1501
789 1502
789 1503
789 1827
789 1831
789 1835
789 1839
790 1520
790 1521
790 1522
790 1523
790 1827
790 1831
790 1835
790 1839
791 1476
791 1477
791 1478
791 1479
791 1827
791 1831
791 1835
791 1839
792 1512
792 1513
792 1514
792 1515
792 1840
792 1844
792 1848
792 1852
793 1500
793 1501
793 1502
793 1503
793 1840
793 1844
793 1848
793 1852
794 1520
794 1521
794 1522
794 1523
794 1840
794 1844
794 1848
794 1852
795 1476
795 1477
795 1478
795 1479
795 1840
795 1844
795 1848
795 1852
796 1512
796 1513
796 1514
796 1515
796 1809
796 1813
796 1817
796 1821
797 1500
797 1501
797 1502
797 1503
797 1809
797 1813
797 1817
797 1821
798 1520
798 1521
798 1522
798 1523
798 1809
798 1813
798 1817
798 1821
799 1476
799 1477
799 1478
799 1479
799 1809
799 1813
799 1817
799 1821
800 1532
800 1533
800 1534
800 1535
800 1795
800 1799
800 1803
800 1807
801 1480
801 1481
801 1482
801 1483
801 1795
801 1799
801 1803
801 1807
802 1508
802 1509
802 1510
802 1511
802 1795
802 1799
802 1803
802 1807
803 1488
803 1489
803 1490
803 1491
803 1795
803 1799
803 1803
803 1807
804 1532
804 1533
804 1534
804 1535
804 1826
804 1830
804 1834
804 1838
805 1480
805 1481
805 1482
805 1483
805 1826
805 1830
805 1834
805 1838
806 1508
806 1509
806 1510
806 1511
806 1826
806 1830
806 1834
806 1838
807 1488
807 1489
807 1490
807 1491
807 1826
807 1830
807 1834
807 1838
808 1532
808 1533
808 1534
808 1535
808 1841
808 1845
808 1849
808 1853
809 1480
809 1481
809 1482
809 1483
809 1841
809 1845
809 1849
809 1853
810 1508
810 1509
810 1510
810 1511
810 1841
810 1845
810 1849
810 1853
811 1488
811 1489
811 1490
811 1491
811 1841
811 1845
811 1849
811 1853
812 1532
812 1533
812 1534
812 1535
812 1808
812 1812
812 1816
812 1820
813 1480
813 1481
813 1482
813 1483
813 1808
813 1812
813 1816
813 1820
814 1508
814 1509
814 1510
814 1511
814 1808
814 1812
814 1816
814 1820
815 1488
815 1489
815 1490
815 1491
815 1808
815 1812
815 1816
815 1820
816 1492
816 1493
816 1494
816 1495
816 1793
816 1797
816 1801
816 1805
817 1504
817 1505
817 1506
817 1507
817 1793
817 1797
817 1801
817 1805
818 1484
818 1485
818 1486
818 1487
818 1793
818 1797
818 1801
818 1805
819 1528
819 1529
819 1530
819 1531
819 1793
819 1797
819 1801
819 1805
820 1492
820 1493
820 1494
820 1495
820 1824
820 1828
820 1832
820 1836
821 1504
821 1505
821 1506
821 1507
821 1824
821 1828
821 1832
821 1836
822 1484
822 1485
822 1486
822 1487
822 1824
822 1828
822 1832
822 1836
823 1528
823 1529
823 1530
823 1531
823 1824
823 1828
823 1832
823 1836
824 1492
824 1493
824 1494
824 1495
824 1843
824 1847
824 1851
824 1855
825 1504
825 1505
825 1506
825 1507
825 1843
825 1847
825 1851
825 1855
826 1484
826 1485
826 1486
826 1487
826 1843
826 1847
826 1851
826 1855
827 1528
827 1529
827 1530
827 1531
827 1843
827 1847
827 1851
827 1855
828 1492
828 1493
828 1494
828 1495
828 1810
828 1814
828 1818
828 1822
829 1504
829 1505
829 1506
829 1507
829 1810
829 1814
829 1818
829 1822
830 1484
830 1485
830 1486
830 1487
830 1810
830 1814
830 1818
830 1822
831 1528
831 1529
831 1530
831 1531
831 1810
831 1814
831 1818
831 1822
832 1472
832 1488
832 1504
832 1520
832 1600
832 1604
832 1608
832 1612
833 1481
833 1497
833 1513
833 1529
833 1600
833 1604
833 1608
833 1612
834 1486
834 1502
834 1518
834 1534
834 1600
834 1604
834 1608
834 1612
835 1479
835 1495
835 1511
835 1527
835 1600
835 1604
835 1608
835 1612
836 1474
836 1490
836 1506
836 1522
836 1649
836 1653
836 1657
836 1661
837 1483
837 1499
837 1515
837 1531
837 1649
837 1653
837 1657
837 1661
838 1484
838 1500
838 1516
838 1532
838 1649
838 1653
838 1657
838 1661
839 1477
839 1493
839 1509
839 1525
839 1649
839 1653
839 1657
839 1661
840 1475
840 1491
840 1507
840 1523
840 1618
840 1622
840 1626
840 1630
841 1482
841 1498
841 1514
841 1530
841 1618
841 1622
841 1626
841 1630
842 1485
842 1501
842 1517
842 1533
842 1618
842 1622
842 1626
842 1630
843 1476
843 1492
843 1508
843 1524
843 1618
843 1622
843 1626
843 1630
844 1473
844 1489
844 1505
844 1521
844 1635
844 1639
844 1643
844 1647
845 1480
845 1496
845 1512
845 1528
845 1635
845 1639
845 1643
845 1647
846 1487
846 1503
846 1519
846 1535
846 1635
846 1639
846 1643
846 1647
847 1478
847 1494
847 1510
847 1526
847 1635
847 1639
847 1643
847 1647
848 1483
848 1499
848 1515
848 1531
848 1650
848 1654
848 1658
848 1662
849 1474
849 1490
849 1506
849 1522
849 1650
849 1654
849 1658
849 1662
850 1477
850 1493
850 1509
850 1525
850 1650
850 1654
850 1658
850 1662
851 1484
851 1500
851 1516
851 1532
851 1650
851 1654
851 1658
851 1662
852 1481
852 1497
852 1513
852 1529
852 1603
852 1607
852 1611
852 1615
853 1472
853 1488
853 1504
853 1520
853 1603
853 1607
853 1611
853 1615
854 1479
854 1495
854 1511
854 1527
854 1603
854 1607
854 1611
854 1615
855 1486
855 1502
855 1518
855 1534
855 1603
855 1607
855 1611
855 1615
856 1480
856 1496
856 1512
856 1528
856 1632
856 1636
856 1640
856 1644
857 1473
857 1489
857 1505
857 1521
857 1632
857 1636
857 1640
857 1644
858 1478
858 1494
858 1510
858 1526
858 1632
858 1636
858 1640
858 1644
859 1487
859 1503
859 1519
859 1535
859 1632
859 1636
859 1640
859 1644
860 1482
860 1498
860 1514
860 1530
860 1617
860 1621
860 1625
860 1629
861 1475
861 1491
861 1507
861 1523
861 1617
861 1621
861 1625
861 1629
862 1476
862 1492
862 1508
862 1524
862 1617
862 1621
862 1625
862 1629
863 1485
863 1501
863 1517
863 1533
863 1617
863 1621
863 1625
863 1629
864 1485
864 1501
864 1517
864 1533
864 1619
864 1623
864 1627
864 1631
865 1476
865 1492
865 1508
865 1524
865 1619
865 1623
865 1627
865 1631
866 1475
866 1491
866 1507
866 1523
866 1619
866 1623
866 1627
866 1631
867 1482
867 1498
867 1514
867 1530
867 1619
867 1623
867 1627
867 1631
868 1487
868 1503
868 1519
868 1535
868 1634
868 1638
868 1642
868 1646
869 1478
869 1494
869 1510
869 1526
869 1634
869 1638
869 1642
869 1646
870 1473
870 1489
870 1505
870 1521
870 1634
870 1638
870 1642
870 1646
871 1480
871 1496
871 1512
871 1528
871 1634
871 1638
871 1642
871 1646
872 1486
872 1502
872 1518
872 1534
872 1601
872 1605
872 1609
872 1613
873 1479
873 1495
873 1511
873 1527
873 1601
873 1605
873 1609
873 1613
874 1472
874 1488
874 1504
874 1520
874 1601
874 1605
874 1609
874 1613
875 1481
875 1497
875 1513
875 1529
875 1601
875 1605
875 1609
875 1613
876 1484
876 1500
876 1516
876 1532
876 1648
876 1652
876 1656
876 1660
877 1477
877 1493
877 1509
877 1525
877 1648
877 1652
877 1656
877 1660
878 1474
878 1490
878 1506
878 1522
878 1648
878 1652
878 1656
878 1660
879 1483
879 1499
879 1515
879 1531
879 1648
879 1652
879 1656
879 1660
880 1478
880 1494
880 1510
880 1526
880 1633
880 1637
880 1641
880 1645
881 1487
881 1503
881 1519
881 1535
881 1633
881 1637
881 1641
881 1645
882 1480
882 1496
882 1512
882 1528
882 1633
882 1637
882 1641
882 1645
883 1473
883 1489
883 1505
883 1521
883 1633
883 1637
883 1641
883 1645
884 1476
884 1492
884 1508
884 1524
884 1616
884 1620
884 1624
884 1628
885 1485
885 1501
885 1517
885 1533
885 1616
885 1620
885 1624
885 1628
886 1482
886 1498
886 1514
886 1530
886 1616
886 1620
886 1624
886 1628
887 1475
887 1491
887 1507
887 1523
887 1616
887 1620
887 1624
887 1628
888 1477
888 1493
888 1509
888 1525
888 1651
888 1655
888 1659
888 1663
889 1484
889 1500
889 1516
889 1532
889 1651
889 1655
889 1659
889 1663
890 1483
890 1499
890 1515
890 1531
890 1651
890 1655
890 1659
890 1663
891 1474
891 1490
891 1506
891 1522
891 1651
891 1655
891 1659
891 1663
892 1479
892 1495
892 1511
892 1527
892 1602
892 1606
892 1610
892 1614
893 1486
893 1502
893 1518
893 1534
893 1602
893 1606
893 1610
893 1614
894 1481
894 1497
894 1513
894 1529
894 1602
894 1606
894 1610
894 1614
895 1472
895 1488
895 1504
895 1520
895 1602
895 1606
895 1610
895 1614
896 1216
896 1220
896 1224
896 1228
896 1600
896 1616
896 1632
896 1648
896 1856
896 1857
896 1858
896 1859
897 1216
897 1220
897 1224
897 1228
897 1613
897 1629
897 1645
897 1661
897 1876
897 1877
897 1878
897 1879
898 1216
898 1220
898 1224
898 1228
898 1606
898 1622
898 1638
898 1654
898 1896
898 1897
898 1898
898 1899
899 1216
899 1220
899 1224
899 1228
899 1611
899 1627
899 1643
899 1659
899 1916
899 1917
899 1918
899 1919
900 1249
900 1253
900 1257
900 1261
900 1614
900 1630
900 1646
900 1662
900 1856
900 1857
900 1858
900 1859
901 1249
901 1253
901 1257
901 1261
901 1603
901 1619
901 1635
901 1651
901 1876
901 1877
901 1878
901 1879
902 1249
902 1253
902 1257
902 1261
902 1608
902 1624
902 1640
902 1656
902 1896
902 1897
902 1898
902 1899
903 1249
903 1253
903 1257
903 1261
903 1605
903 1621
903 1637
903 1653
903 1916
903 1917
903 1918
903 1919
904 1266
904 1270
904 1274
904 1278
904 1607
904 1623
904 1639
904 1655
904 1856
904 1857
904 1858
904 1859
905 1266
905 1270
905 1274
905 1278
905 1610
905 1626
905 1642
905 1658
905 1876
905 1877
905 1878
905 1879
906 1266
906 1270
906 1274
906 1278
906 1601
906 1617
906 1633
906 1649
906 1896
906 1897
906 1898
906 1899
907 1266
907 1270
907 1274
907 1278
907 1612
907 1628
907 1644
907 1660
907 1916
907 1917
907 1918
907 1919
908 1235
908 1239
908 1243
908 1247
908 1609
908 1625
908 1641
908 1657
908 1856
908 1857
908 1858
908 1859
909 1235
909 1239
909 1243
909 1247
909 1604
909 1620
909 1636
909 1652
909 1876
909 1877
909 1878
909 1879
910 1235
910 1239
910 1243
910 1247
910 1615
910 1631
910 1647
910 1663
910 1896
910 1897
910 1898
910 1899
911 1235
911 1239
911 1243
911 1247
911 1602
911 1618
911 1634
911 1650
911 1916
911 1917
911 1918
911 1919
912 1234
912 1238
912 1242
912 1246
912 1603
912 1619
912 1635
912 1651
912 1912
912 1913
912 1914
912 1915
913 1234
913 1238
913 1242
913 1246
913 1614
913 1630
913 1646
913 1662
913 1900
913 1901
913 1902
913 1903
914 1234
914 1238
914 1242
914 1246
914 1605
914 1621
914 1637
914 1653
914 1872
914 1873
914 1874
914 1875
915 1234
915 1238
915 1242
915 1246
915 1608
915 1624
915 1640
915 1656
915 1860
915 1861
915 1862
915 1863
916 1267
916 1271
916 1275
916 1279
916 1613
916 1629
916 1645
916 1661
916 1912
916 1913
916 1914
916 1915
917 1267
917 1271
917 1275
917 1279
917 1600
917 1616
917 1632
917 1648
917 1900
917 1901
917 1902
917 1903
918 1267
918 1271
918 1275
918 1279
918 1611
918 1627
918 1643
918 1659
918 1872
918 1873
918 1874
918 1875
919 1267
919 1271
919 1275
919 1279
919 1606
919 1622
919 1638
919 1654
919 1860
919 1861
919 1862
919 1863
920 1248
920 1252
920 1256
920 1260
920 1604
920 1620
920 1636
920 1652
920 1912
920 1913
920 1914
920 1915
921 1248
921 1252
921 1256
921 1260
921 1609
921 1625
921 1641
921 1657
921 1900
921 1901
921 1902
921 1903
922 1248
922 1252
922 1256
922 1260
922 1602
922 1618
922 1634
922 1650
922 1872
922 1873
922 1874
922 1875
923 1248
923 1252
923 1256
923 1260
923 1615
923 1631
923 1647
923 1663
923 1860
923 1861
923 1862
923 1863
924 1217
924 1221
924 1225
924 1229
924 1610
924 1626
924 1642
924 1658
924 1912
924 1913
924 1914
924 1915
925 1217
925 1221
925 1225
925 1229
925 1607
925 1623
925 1639
925 1655
925 1900
925 1901
925 1902
925 1903
926 1217
926 1221
926 1225
926 1229
926 1612
926 1628
926 1644
926 1660
926 1872
926 1873
926 1874
926 1875
927 1217
927 1221
927 1225
927 1229
927 1601
927 1617
927 1633
927 1649
927 1860
927 1861
927 1862
927 1863
928 1251
928 1255
928 1259
928 1263
928 1601
928 1617
928 1633
928 1649
928 1884
928 1885
928 1886
928 1887
929 1251
929 1255
929 1259
929 1263
929 1612
929 1628
929 1644
929 1660
929 1864
929 1865
929 1866
929 1867
930 1251
930 1255
930 1259
930 1263
930 1607
930 1623
930 1639
930 1655
930 1908
930 1909
930 1910
930 1911
931 1251
931 1255
931 1259
931 1263
931 1610
931 1626
931 1642
931 1658
931 1888
931 1889
931 1890
931 1891
932 1218
932 1222
932 1226
932 1230
932 1615
932 1631
932 1647
932 1663
932 1884
932 1885
932 1886
932 1887
933 1218
933 1222
933 1226
933 1230
933 1602
933 1618
933 1634
933 1650
933 1864
933 1865
933 1866
933 1867
934 1218
934 1222
934 1226
934 1230
934 1609
934 1625
934 1641
934 1657
934 1908
934 1909
934 1910
934 1911
935 1218
935 1222
935 1226
935 1230
935 1604
935 1620
935 1636
935 1652
935 1888
935 1889
935 1890
935 1891
936 1233
936 1237
936 1241
936 1245
936 1606
936 1622
936 1638
936 1654
936 1884
936 1885
936 1886
936 1887
937 1233
937 1237
937 1241
937 1245
937 1611
937 1627
937 1643
937 1659
937 1864
937 1865
937 1866
937 1867
938 1233
938 1237
938 1241
938 1245
938 1600
938 1616
938 1632
938 1648
938 1908
938 1909
938 1910
938 1911
939 1233
939 1237
939 1241
939 1245
939 1613
939 1629
939 1645
939 1661
939 1888
939 1889
939 1890
939 1891
940 1264
940 1268
940 1272
940 1276
940 1608
940 1624
940 1640
940 1656
940 1884
940 1885
940 1886
940 1887
941 1264
941 1268
941 1272
941 1276
941 1605
941 1621
941 1637
941 1653
941 1864
941 1865
941 1866
941 1867
942 1264
942 1268
942 1272
942 1276
942 1614
942 1630
942 1646
942 1662
942 1908
942 1909
942 1910
942 1911
943 1264
943 1268
943 1272
943 1276
943 1603
943 1619
943 1635
943 1651
943 1888
943 1889
943 1890
943 1891
944 1265
944 1269
944 1273
944 1277
944 1602
944 1618
944 1634
944 1650
944 1892
944 1893
944 1894
944 1895
945 1265
945 1269
945 1273
945 1277
945 1615
945 1631
945 1647
945 1663
945 1904
945 1905
945 1906
945 1907
946 1265
946 1269
946 1273
946 1277
946 1604
946 1620
946 1636
946 1652
946 1868
946 1869
946 1870
946 1871
947 1265
947 1269
947 1273
947 1277
947 1609
947 1625
947 1641
947 1657
947 1880
947 1881
947 1882
947 1883
948 1232
948 1236
948 1240
948 1244
948 1612
948 1628
948 1644
948 1660
948 1892
948 1893
948 1894
948 1895
949 1232
949 1236
949 1240
949 1244
949 1601
949 1617
949 1633
949 1649
949 1904
949 1905
949 1906
949 1907
950 1232
950 1236
950 1240
950 1244
950 1610
950 1626
950 1642
950 1658
950 1868
950 1869
950 1870
950 1871
951 1232
951 1236
951 1240
951 1244
951 1607
951 1623
951 1639
951 1655
951 1880
951 1881
951 1882
951 1883
952 1219
952 1223
952 1227
952 1231
952 1605
952 1621
952 1637
952 1653
952 1892
952 1893
952 1894
952 1895
953 1219
953 1223
953 1227
953 1231
953 1608
953 1624
953 1640
953 1656
953 1904
953 1905
953 1906
953 1907
954 1219
954 1223
954 1227
954 1231
954 1603
954 1619
954 1635
954 1651
954 1868
954 1869
954 1870
954 1871
955 1219
955 1223
955 1227
955 1231
955 1614
955 1630
955 1646
955 1662
955 1880
955 1881
955 1882
955 1883
956 1250
956 1254
956 1258
956 1262
956 1611
956 1627
956 1643
956 1659
956 1892
956 1893
956 1894
956 1895
957 1250
957 1254
957 1258
957 1262
957 1606
957 1622
957 1638
957 1654
957 1904
957 1905
957 1906
957 1907
958 1250
958 1254
958 1258
958 1262
958 1613
958 1629
958 1645
958 1661
958 1868
958 1869
958 1870
958 1871
959 1250
959 1254
959 1258
959 1262
959 1600
959 1616
959 1632
959 1648
959 1880
959 1881
959 1882
959 1883
960 1728
960 1749
960 1770
960 1791
960 1856
960 1872
960 1888
960 1904
961 1741
961 1752
961 1767
961 1778
961 1865
961 1881
961 1897
961 1913
962 1734
962 1747
962 1772
962 1785
962 1870
962 1886
962 1902
962 1918
963 1739
963 1758
963 1761
963 1780
963 1863
963 1879
963 1895
963 1911
964 1738
964 1759
964 1760
964 1781
964 1858
964 1874
964 1890
964 1906
965 1735
965 1746
965 1773
965 1784
965 1867
965 1883
965 1899
965 1915
966 1740
966 1753
966 1766
966 1779
966 1868
966 1884
966 1900
966 1916
967 1729
967 1748
967 1771
967 1790
967 1861
967 1877
967 1893
967 1909
968 1743
968 1754
968 1765
968 1776
968 1859
968 1875
968 1891
968 1907
969 1730
969 1751
969 1768
969 1789
969 1866
969 1882
969 1898
969 1914
970 1737
970 1756
970 1763
970 1782
970 1869
970 1885
970 1901
970 1917
971 1732
971 1745
971 1774
971 1787
971 1860
971 1876
971 1892
971 1908
972 1733
972 1744
972 1775
972 1786
972 1857
972 1873
972 1889
972 1905
973 1736
973 1757
973 1762
973 1783
973 1864
973 1880
973 1896
973 1912
974 1731
974 1750
974 1769
974 1788
974 1871
974 1887
974 1903
974 1919
975 1742
975 1755
975 1764
975 1777
975 1862
975 1878
975 1894
975 1910
976 1728
976 1749
976 1770
976 1791
976 1867
976 1883
976 1899
976 1915
977 1741
977 1752
977 1767
977 1778
977 1858
977 1874
977 1890
977 1906
978 1734
978 1747
978 1772
978 1785
978 1861
978 1877
978 1893
978 1909
979 1739
979 1758
979 1761
979 1780
979 1868
979 1884
979 1900
979 1916
980 1738
980 1759
980 1760
980 1781
980 1865
980 1881
980 1897
980 1913
981 1735
981 1746
981 1773
981 1784
981 1856
981 1872
981 1888
981 1904
982 1740
982 1753
982 1766
982 1779
982 1863
982 1879
982 1895
982 1911
983 1729
983 1748
983 1771
983 1790
983 1870
983 1886
983 1902
983 1918
984 1743
984 1754
984 1765
984 1776
984 1864
984 1880
984 1896
984 1912
985 1730
985 1751
985 1768
985 1789
985 1857
985 1873
985 1889
985 1905
986 1737
986 1756
986 1763
986 1782
986 1862
986 1878
986 1894
986 1910
987 1732
987 1745
987 1774
987 1787
987 1871
987 1887
987 1903
987 1919
988 1733
988 1744
988 1775
988 1786
988 1866
988 1882
988 1898
988 1914
989 1736
989 1757
989 1762
989 1783
989 1859
989 1875
989 1891
989 1907
990 1731
990 1750
990 1769
990 1788
990 1860
990 1876
990 1892
990 1908
991 1742
991 1755
991 1764
991 1777
991 1869
991 1885
991 1901
991 1917
992 1728
992 1749
992 1770
992 1791
992 1869
992 1885
992 1901
992 1917
993 1741
993 1752
993 1767
993 1778
993 1860
993 1876
993 1892
993 1908
994 1734
994 1747
994 1772
994 1785
994 1859
994 1875
994 1891
994 1907
995 1739
995 1758
995 1761
995 1780
995 1866
995 1882
995 1898
995 1914
996 1738
996 1759
996 1760
996 1781
996 1871
996 1887
996 1903
996 1919
997 1735
997 1746
997 1773
997 1784
997 1862
997 1878
997 1894
997 1910
998 1740
998 1753
998 1766
998 1779
998 1857
998 1873
998 1889
998 1905
999 1729
999 1748
999 1771
999 1790
999 1864
999 1880
999 1896
999 1912
1000 1743
1000 1754
1000 1765
1000 1776
1000 1870
1000 1886
1000 1902
1000 1918
1001 1730
1001 1751
1001 1768
1001 1789
1001 1863
1001 1879
1001 1895
1001 1911
1002 1737
1002 1756
1002 1763
1002 1782
1002 1856
1002 1872
1002 1888
1002 1904
1003 1732
1003 1745
1003 1774
1003 1787
1003 1865
1003 1881
1003 1897
1003 1913
1004 1733
1004 1744
1004 1775
1004 1786
1004 1868
1004 1884
1004 1900
1004 1916
1005 1736
1005 1757
1005 1762
1005 1783
1005 1861
1005 1877
1005 1893
1005 1909
1006 1731
1006 1750
1006 1769
1006 1788
1006 1858
1006 1874
1006 1890
1006 1906
1007 1742
1007 1755
1007 1764
1007 1777
1007 1867
1007 1883
1007 1899
1007 1915
1008 1728
1008 1749
1008 1770
1008 1791
1008 1862
1008 1878
1008 1894
1008 1910
1009 1741
1009 1752
1009 1767
1009 1778
1009 1871
1009 1887
1009 1903
1009 1919
1010 1734
1010 1747
1010 1772
1010 1785
1010 1864
1010 1880
1010 1896
1010 1912
1011 1739
1011 1758
1011 1761
1011 1780
1011 1857
1011 1873
1011 1889
1011 1905
1012 1738
1012 1759
1012 1760
1012 1781
1012 1860
1012 1876
1012 1892
1012 1908
1013 1735
1013 1746
1013 1773
1013 1784
1013 1869
1013 1885
1013 1901
1013 1917
1014 1740
1014 1753
1014 1766
1014 1779
1014 1866
1014 1882
1014 1898
1014 1914
1015 1729
1015 1748
1015 1771
1015 1790
1015 1859
1015 1875
1015 1891
1015 1907
1016 1743
1016 1754
1016 1765
1016 1776
1016 1861
1016 1877
1016 1893
1016 1909
1017 1730
1017 1751
1017 1768
1017 1789
1017 1868
1017 1884
1017 1900
1017 1916
1018 1737
1018 1756
1018 1763
1018 1782
1018 1867
1018 1883
1018 1899
1018 1915
1019 1732
1019 1745
1019 1774
1019 1787
1019 1858
1019 1874
1019 1890
1019 1906
1020 1733
1020 1744
1020 1775
1020 1786
1020 1863
1020 1879
1020 1895
1020 1911
1021 1736
1021 1757
1021 1762
1021 1783
1021 1870
1021 1886
1021 1902
1021 1918
1022 1731
1022 1750
1022 1769
1022 1788
1022 1865
1022 1881
1022 1897
1022 1913
1023 1742
1023 1755
1023 1764
1023 1777
1023 1856
1023 1872
1023 1888
1023 1904
1024 1664
1024 1668
1024 1672
1024 1676
1025 1664
1025 1668
1025 1672
1025 1676
1026 1664
1026 1668
1026 1672
1026 1676
1027 1664
1027 1668
1027 1672
1027 1676
1028 1697
1028 1701
1028 1705
1028 1709
1029 1697
1029 1701
1029 1705
1029 1709
1030 1697
1030 1701
1030 1705
1030 1709
1031 1697
1031 1701
1031 1705
1031 1709
1032 1714
1032 1718
1032 1722
1032 1726
1033 1714
1033 1718
1033 1722
1033 1726
1034 1714
1034 1718
1034 1722
1034 1726
1035 1714
1035 1718
1035 1722
1035 1726
1036 1683
1036 1687
1036 1691
1036 1695
1037 1683
1037 1687
1037 1691
1037 1695
1038 1683
1038 1687
1038 1691
1038 1695
1039 1683
1039 1687
1039 1691
1039 1695
1040 1713
1040 1717
1040 1721
1040 1725
1041 1713
1041 1717
1041 1721
1041 1725
1042 1713
1042 1717
1042 1721
1042 1725
1043 1713
1043 1717
1043 1721
1043 1725
1044 1680
1044 1684
1044 1688
1044 1692
1045 1680
1045 1684
1045 1688
1045 1692
1046 1680
1046 1684
1046 1688
1046 1692
1047 1680
1047 1684
1047 1688
1047 1692
1048 1667
1048 1671
1048 1675
1048 1679
1049 1667
1049 1671
1049 1675
1049 1679
1050 1667
1050 1671
1050 1675
1050 1679
1051 1667
1051 1671
1051 1675
1051 1679
1052 1698
1052 1702
1052 1706
1052 1710
1053 1698
1053 1702
1053 1706
1053 1710
1054 1698
1054 1702
1054 1706
1054 1710
1055 1698
1055 1702
1055 1706
1055 1710
1056 1682
1056 1686
1056 1690
1056 1694
1057 1682
1057 1686
1057 1690
1057 1694
1058 1682
1058 1686
1058 1690
1058 1694
1059 1682
1059 1686
1059 1690
1059 1694
1060 1715
1060 1719
1060 1723
1060 1727
1061 1715
1061 1719
1061 1723
1061 1727
1062 1715
1062 1719
1062 1723
1062 1727
1063 1715
1063 1719
1063 1723
1063 1727
1064 1696
1064 1700
1064 1704
1064 1708
1065 1696
1065 1700
1065 1704
1065 1708
1066 1696
1066 1700
1066 1704
1066 1708
1067 1696
1067 1700
1067 1704
1067 1708
1068 1665
1068 1669
1068 1673
1068 1677
1069 1665
1069 1669
1069 1673
1069 1677
1070 1665
1070 1669
1070 1673
1070 1677
1071 1665
1071 1669
1071 1673
1071 1677
1072 1699
1072 1703
1072 1707
1072 1711
1073 1699
1073 1703
1073 1707
1073 1711
1074 1699
1074 1703
1074 1707
1074 1711
1075 1699
1075 1703
1075 1707
1075 1711
1076 1666
1076 1670
1076 1674
1076 1678
1077 1666
1077 1670
1077 1674
1077 1678
1078 1666
1078 1670
1078 1674
1078 1678
1079 1666
1079 1670
1079 1674
1079 1678
1080 1681
1080 1685
1080 1689
1080 1693
1081 1681
1081 1685
1081 1689
1081 1693
1082 1681
1082 1685
1082 1689
1082 1693
1083 1681
1083 1685
1083 1689
1083 1693
1084 1712
1084 1716
1084 1720
1084 1724
1085 1712
1085 1716
1085 1720
1085 1724
1086 1712
1086 1716
1086 1720
1086 1724
1087 1712
1087 1716
1087 1720
1087 1724
1088 1536
1088 1540
1088 1544
1088 1548
1088 1664
1088 1680
1088 1696
1088 1712
1089 1536
1089 1540
1089 1544
1089 1548
1089 1677
1089 1693
1089 1709
1089 1725
1090 1536
1090 1540
1090 1544
1090 1548
1090 1670
1090 1686
1090 1702
1090 1718
1091 1536
1091 1540
1091 1544
1091 1548
1091 1675
1091 1691
1091 1707
1091 1723
1092 1569
1092 1573
1092 1577
1092 1581
1092 1678
1092 1694
1092 1710
1092 1726
1093 1569
1093 1573
1093 1577
1093 1581
1093 1667
1093 1683
1093 1699
1093 1715
1094 1569
1094 1573
1094 1577
1094 1581
1094 1672
1094 1688
1094 1704
1094 1720
1095 1569
1095 1573
1095 1577
1095 1581
1095 1669
1095 1685
1095 1701
1095 1717
1096 1586
1096 1590
1096 1594
1096 1598
1096 1671
1096 1687
1096 1703
1096 1719
1097 1586
1097 1590
1097 1594
1097 1598
1097 1674
1097 1690
1097 1706
1097 1722
1098 1586
1098 1590
1098 1594
1098 1598
1098 1665
1098 1681
1098 1697
1098 1713
1099 1586
1099 1590
1099 1594
1099 1598
1099 1676
1099 1692
1099 1708
1099 1724
1100 1555
1100 1559
1100 1563
1100 1567
1100 1673
1100 1689
1100 1705
1100 1721
1101 1555
1101 1559
1101 1563
1101 1567
1101 1668
1101 1684
1101 1700
1101 1716
1102 1555
1102 1559
1102 1563
1102 1567
1102 1679
1102 1695
1102 1711
1102 1727
1103 1555
1103 1559
1103 1563
1103 1567
1103 1666
1103 1682
1103 1698
1103 1714
1104 1538
1104 1542
1104 1546
1104 1550
1104 1667
1104 1683
1104 1699
1104 1715
1105 1538
1105 1542
1105 1546
1105 1550
1105 1678
1105 1694
1105 1710
1105 1726
1106 1538
1106 1542
1106 1546
1106 1550
1106 1669
1106 1685
1106 1701
1106 1717
1107 1538
1107 1542
1107 1546
1107 1550
1107 1672
1107 1688
1107 1704
1107 1720
1108 1571
1108 1575
1108 1579
1108 1583
1108 1677
1108 1693
1108 1709
1108 1725
1109 1571
1109 1575
1109 1579
1109 1583
1109 1664
1109 1680
1109 1696
1109 1712
1110 1571
1110 1575
1110 1579
1110 1583
1110 1675
1110 1691
1110 1707
1110 1723
1111 1571
1111 1575
1111 1579
1111 1583
1111 1670
1111 1686
1111 1702
1111 1718
1112 1584
1112 1588
1112 1592
1112 1596
1112 1668
1112 1684
1112 1700
1112 1716
1113 1584
1113 1588
1113 1592
1113 1596
1113 1673
1113 1689
1113 1705
1113 1721
1114 1584
1114 1588
1114 1592
1114 1596
1114 1666
1114 1682
1114 1698
1114 1714
1115 1584
1115 1588
1115 1592
1115 1596
1115 1679
1115 1695
1115 1711
1115 1727
1116 1553
1116 1557
1116 1561
1116 1565
1116 1674
1116 1690
1116 1706
1116 1722
1117 1553
1117 1557
1117 1561
1117 1565
1117 1671
1117 1687
1117 1703
1117 1719
1118 1553
1118 1557
1118 1561
1118 1565
1118 1676
1118 1692
1118 1708
1118 1724
1119 1553
1119 1557
1119 1561
1119 1565
1119 1665
1119 1681
1119 1697
1119 1713
1120 1539
1120 1543
1120 1547
1120 1551
1120 1665
1120 1681
1120 1697
1120 1713
1121 1539
1121 1543
1121 1547
1121 1551
1121 1676
1121 1692
1121 1708
1121 1724
1122 1539
1122 1543
1122 1547
1122 1551
1122 1671
1122 1687
1122 1703
1122 1719
1123 1539
1123 1543
1123 1547
1123 1551
1123 1674
1123 1690
1123 1706
1123 1722
1124 1570
1124 1574
1124 1578
1124 1582
1124 1679
1124 1695
1124 1711
1124 1727
1125 1570
1125 1574
1125 1578
1125 1582
1125 1666
1125 1682
1125 1698
1125 1714
1126 1570
1126 1574
1126 1578
1126 1582
1126 1673
1126 1689
1126 1705
1126 1721
1127 1570
1127 1574
1127 1578
1127 1582
1127 1668
1127 1684
1127 1700
1127 1716
1128 1585
1128 1589
1128 1593
1128 1597
1128 1670
1128 1686
1128 1702
1128 1718
1129 1585
1129 1589
1129 1593
1129 1597
1129 1675
1129 1691
1129 1707
1129 1723
1130 1585
1130 1589
1130 1593
1130 1597
1130 1664
1130 1680
1130 1696
1130 1712
1131 1585
1131 1589
1131 1593
1131 1597
1131 1677
1131 1693
1131 1709
1131 1725
1132 1552
1132 1556
1132 1560
1132 1564
1132 1672
1132 1688
1132 1704
1132 1720
1133 1552
1133 1556
1133 1560
1133 1564
1133 1669
1133 1685
1133 1701
1133 1717
1134 1552
1134 1556
1134 1560
1134 1564
1134 1678
1134 1694
1134 1710
1134 1726
1135 1552
1135 1556
1135 1560
1135 1564
1135 1667
1135 1683
1135 1699
1135 1715
1136 1537
1136 1541
1136 1545
1136 1549
1136 1666
1136 1682
1136 1698
1136 1714
1137 1537
1137 1541
1137 1545
1137 1549
1137 1679
1137 1695
1137 1711
1137 1727
1138 1537
1138 1541
1138 1545
1138 1549
1138 1668
1138 1684
1138 1700
1138 1716
1139 1537
1139 1541
1139 1545
1139 1549
1139 1673
1139 1689
1139 1705
1139 1721
1140 1568
1140 1572
1140 1576
1140 1580
1140 1676
1140 1692
1140 1708
1140 1724
1141 1568
1141 1572
1141 1576
1141 1580
1141 1665
1141 1681
1141 1697
1141 1713
1142 1568
1142 1572
1142 1576
1142 1580
1142 1674
1142 1690
1142 1706
1142 1722
1143 1568
1143 1572
1143 1576
1143 1580
1143 1671
1143 1687
1143 1703
1143 1719
1144 1587
1144 1591
1144 1595
1144 1599
1144 1669
1144 1685
1144 1701
1144 1717
1145 1587
1145 1591
1145 1595
1145 1599
1145 1672
1145 1688
1145 1704
1145 1720
1146 1587
1146 1591
1146 1595
1146 1599
1146 1667
1146 1683
1146 1699
1146 1715
1147 1587
1147 1591
1147 1595
1147 1599
1147 1678
1147 1694
1147 1710
1147 1726
1148 1554
1148 1558
1148 1562
1148 1566
1148 1675
1148 1691
1148 1707
1148 1723
1149 1554
1149 1558
1149 1562
1149 1566
1149 1670
1149 1686
1149 1702
1149 1718
1150 1554
1150 1558
1150 1562
1150 1566
1150 1677
1150 1693
1150 1709
1150 1725
1151 1554
1151 1558
1151 1562
1151 1566
1151 1664
1151 1680
1151 1696
1151 1712
1152 1856
1152 1877
1152 1898
1152 1919
1153 1865
1153 1884
1153 1891
1153 1910
1154 1870
1154 1883
1154 1892
1154 1905
1155 1863
1155 1874
1155 1901
1155 1912
1156 1858
1156 1879
1156 1896
1156 1917
1157 1867
1157 1886
1157 1889
1157 1908
1158 1868
1158 1881
1158 1894
1158 1907
1159 1861
1159 1872
1159 1903
1159 1914
1160 1859
1160 1878
1160 1897
1160 1916
1161 1866
1161 1887
1161 1888
1161 1909
1162 1869
1162 1880
1162 1895
1162 1906
1163 1860
1163 1873
1163 1902
1163 1915
1164 1857
1164 1876
1164 1899
1164 1918
1165 1864
1165 1885
1165 1890
1165 1911
1166 1871
1166 1882
1166 1893
1166 1904
1167 1862
1167 1875
1167 1900
1167 1913
1168 1856
1168 1877
1168 1898
1168 1919
1169 1865
1169 1884
1169 1891
1169 1910
1170 1870
1170 1883
1170 1892
1170 1905
1171 1863
1171 1874
1171 1901
1171 1912
1172 1858
1172 1879
1172 1896
1172 1917
1173 1867
1173 1886
1173 1889
1173 1908
1174 1868
1174 1881
1174 1894
1174 1907
1175 1861
1175 1872
1175 1903
1175 1914
1176 1859
1176 1878
1176 1897
1176 1916
1177 1866
1177 1887
1177 1888
1177 1909
1178 1869
1178 1880
1178 1895
1178 1906
1179 1860
1179 1873
1179 1902
1179 1915
1180 1857
1180 1876
1180 1899
1180 1918
1181 1864
1181 1885
1181 1890
1181 1911
1182 1871
1182 1882
1182 1893
1182 1904
1183 1862
1183 1875
1183 1900
1183 1913
1184 1856
1184 1877
1184 1898
1184 1919
1185 1865
1185 1884
1185 1891
1185 1910
1186 1870
1186 1883
1186 1892
1186 1905
1187 1863
1187 1874
1187 1901
1187 1912
1188 1858
1188 1879
1188 1896
1188 1917
1189 1867
1189 1886
1189 1889
1189 1908
1190 1868
1190 1881
1190 1894
1190 1907
1191 1861
1191 1872
1191 1903
1191 1914
1192 1859
1192 1878
1192 1897
1192 1916
1193 1866
1193 1887
1193 1888
1193 1909
1194 1869
1194 1880
1194 1895
1194 1906
1195 1860
1195 1873
1195 1902
1195 1915
1196 1857
1196 1876
1196 1899
1196 1918
1197 1864
1197 1885
1197 1890
1197 1911
1198 1871
1198 1882
1198 1893
1198 1904
1199 1862
1199 1875
1199 1900
1199 1913
1200 1856
1200 1877
1200 1898
1200 1919
1201 1865
1201 1884
1201 1891
1201 1910
1202 1870
1202 1883
1202 1892
1202 1905
1203 1863
1203 1874
1203 1901
1203 1912
1204 1858
1204 1879
1204 1896
1204 1917
1205 1867
1205 1886
1205 1889
1205 1908
1206 1868
1206 1881
1206 1894
1206 1907
1207 1861
1207 1872
1207 1903
1207 1914
1208 1859
1208 1878
1208 1897
1208 1916
1209 1866
1209 1887
1209 1888
1209 1909
1210 1869
1210 1880
1210 1895
1210 1906
1211 1860
1211 1873
1211 1902
1211 1915
1212 1857
1212 1876
1212 1899
1212 1918
1213 1864
1213 1885
1213 1890
1213 1911
1214 1871
1214 1882
1214 1893
1214 1904
1215 1862
1215 1875
1215 1900
1215 1913
1216 1664
1216 1685
1216 1706
1216 1727
1217 1665
1217 1684
1217 1707
1217 1726
1218 1666
1218 1687
1218 1704
1218 1725
1219 1667
1219 1686
1219 1705
1219 1724
1220 1670
1220 1683
1220 1708
1220 1721
1221 1671
1221 1682
1221 1709
1221 1720
1222 1668
1222 1681
1222 1710
1222 1723
1223 1669
1223 1680
1223 1711
1223 1722
1224 1675
1224 1694
1224 1697
1224 1716
1225 1674
1225 1695
1225 1696
1225 1717
1226 1673
1226 1692
1226 1699
1226 1718
1227 1672
1227 1693
1227 1698
1227 1719
1228 1677
1228 1688
1228 1703
1228 1714
1229 1676
1229 1689
1229 1702
1229 1715
1230 1679
1230 1690
1230 1701
1230 1712
1231 1678
1231 1691
1231 1700
1231 1713
1232 1664
1232 1685
1232 1706
1232 1727
1233 1665
1233 1684
1233 1707
1233 1726
1234 1666
1234 1687
1234 1704
1234 1725
1235 1667
1235 1686
1235 1705
1235 1724
1236 1670
1236 1683
1236 1708
1236 1721
1237 1671
1237 1682
1237 1709
1237 1720
1238 1668
1238 1681
1238 1710
1238 1723
1239 1669
1239 1680
1239 1711
1239 1722
1240 1675
1240 1694
1240 1697
1240 1716
1241 1674
1241 1695
1241 1696
1241 1717
1242 1673
1242 1692
1242 1699
1242 1718
1243 1672
1243 1693
1243 1698
1243 1719
1244 1677
1244 1688
1244 1703
1244 1714
1245 1676
1245 1689
1245 1702
1245 1715
1246 1679
1246 1690
1246 1701
1246 1712
1247 1678
1247 1691
1247 1700
1247 1713
1248 1664
1248 1685
1248 1706
1248 1727
1249 1665
1249 1684
1249 1707
1249 1726
1250 1666
1250 1687
1250 1704
1250 1725
1251 1667
1251 1686
1251 1705
1251 1724
1252 1670
1252 1683
1252 1708
1252 1721
1253 1671
1253 1682
1253 1709
1253 1720
1254 1668
1254 1681
1254 1710
1254 1723
1255 1669
1255 1680
1255 1711
1255 1722
1256 1675
1256 1694
1256 1697
1256 1716
1257 1674
1257 1695
1257 1696
1257 1717
1258 1673
1258 1692
1258 1699
1258 1718
1259 1672
1259 1693
1259 1698
1259 1719
1260 1677
1260 1688
1260 1703
1260 1714
1261 1676
1261 1689
1261 1702
1261 1715
1262 1679
1262 1690
1262 1701
1262 1712
1263 1678
1263 1691
1263 1700
1263 1713
1264 1664
1264 1685
1264 1706
1264 1727
1265 1665
1265 1684
1265 1707
1265 1726
1266 1666
1266 1687
1266 1704
1266 1725
1267 1667
1267 1686
1267 1705
1267 1724
1268 1670
1268 1683
1268 1708
1268 1721
1269 1671
1269 1682
1269 1709
1269 1720
1270 1668
1270 1681
1270 1710
1270 1723
1271 1669
1271 1680
1271 1711
1271 1722
1272 1675
1272 1694
1272 1697
1272 1716
1273 1674
1273 1695
1273 1696
1273 1717
1274 1673
1274 1692
1274 1699
1274 1718
1275 1672
1275 1693
1275 1698
1275 1719
1276 1677
1276 1688
1276 1703
1276 1714
1277 1676
1277 1689
1277 1702
1277 1715
1278 1679
1278 1690
1278 1701
1278 1712
1279 1678
1279 1691
1279 1700
1279 1713
1280 1536
1280 1557
1280 1578
1280 1599
1280 1728
1280 1744
1280 1760
1280 1776
1280 1792
1280 1793
1280 1794
1280 1795
1281 1541
1281 1552
1281 1583
1281 1594
1281 1737
1281 1753
1281 1769
1281 1785
1281 1808
1281 1809
1281 1810
1281 1811
1282 1546
1282 1567
1282 1568
1282 1589
1282 1742
1282 1758
1282 1774
1282 1790
1282 1824
1282 1825
1282 1826
1282 1827
1283 1551
1283 1562
1283 1573
1283 1584
1283 1735
1283 1751
1283 1767
1283 1783
1283 1840
1283 1841
1283 1842
1283 1843
1284 1550
1284 1563
1284 1572
1284 1585
1284 1730
1284 1746
1284 1762
1284 1778
1284 1792
1284 1793
1284 1794
1284 1795
1285 1547
1285 1566
1285 1569
1285 1588
1285 1739
1285 1755
1285 1771
1285 1787
1285 1808
1285 1809
1285 1810
1285 1811
1286 1540
1286 1553
1286 1582
1286 1595
1286 1740
1286 1756
1286 1772
1286 1788
1286 1824
1286 1825
1286 1826
1286 1827
1287 1537
1287 1556
1287 1579
1287 1598
1287 1733
1287 1749
1287 1765
1287 1781
1287 1840
1287 1841
1287 1842
1287 1843
1288 1543
1288 1554
1288 1581
1288 1592
1288 1731
1288 1747
1288 1763
1288 1779
1288 1792
1288 1793
1288 1794
1288 1795
1289 1538
1289 1559
1289 1576
1289 1597
1289 1738
1289 1754
1289 1770
1289 1786
1289 1808
1289 1809
1289 1810
1289 1811
1290 1549
1290 1560
1290 1575
1290 1586
1290 1741
1290 1757
1290 1773
1290 1789
1290 1824
1290 1825
1290 1826
1290 1827
1291 1544
1291 1565
1291 1570
1291 1591
1291 1732
1291 1748
1291 1764
1291 1780
1291 1840
1291 1841
1291 1842
1291 1843
1292 1545
1292 1564
1292 1571
1292 1590
1292 1729
1292 1745
1292 1761
1292 1777
1292 1792
1292 1793
1292 1794
1292 1795
1293 1548
1293 1561
1293 1574
1293 1587
1293 1736
1293 1752
1293 1768
1293 1784
1293 1808
1293 1809
1293 1810
1293 1811
1294 1539
1294 1558
1294 1577
1294 1596
1294 1743
1294 1759
1294 1775
1294 1791
1294 1824
1294 1825
1294 1826
1294 1827
1295 1542
1295 1555
1295 1580
1295 1593
1295 1734
1295 1750
1295 1766
1295 1782
1295 1840
1295 1841
1295 1842
1295 1843
1296 1536
1296 1557
1296 1578
1296 1599
1296 1739
1296 1755
1296 1771
1296 1787
1296 1828
1296 1829
1296 1830
1296 1831
1297 1541
1297 1552
1297 1583
1297 1594
1297 1730
1297 1746
1297 1762
1297 1778
1297 1844
1297 1845
1297 1846
1297 1847
1298 1546
1298 1567
1298 1568
1298 1589
1298 1733
1298 1749
1298 1765
1298 1781
1298 1796
1298 1797
1298 1798
1298 1799
1299 1551
1299 1562
1299 1573
1299 1584
1299 1740
1299 1756
1299 1772
1299 1788
1299 1812
1299 1813
1299 1814
1299 1815
1300 1550
1300 1563
1300 1572
1300 1585
1300 1737
1300 1753
1300 1769
1300 1785
1300 1828
1300 1829
1300 1830
1300 1831
1301 1547
1301 1566
1301 1569
1301 1588
1301 1728
1301 1744
1301 1760
1301 1776
1301 1844
1301 1845
1301 1846
1301 1847
1302 1540
1302 1553
1302 1582
1302 1595
1302 1735
1302 1751
1302 1767
1302 1783
1302 1796
1302 1797
1302 1798
1302 1799
1303 1537
1303 1556
1303 1579
1303 1598
1303 1742
1303 1758
1303 1774
1303 1790
1303 1812
1303 1813
1303 1814
1303 1815
1304 1543
1304 1554
1304 1581
1304 1592
1304 1736
1304 1752
1304 1768
1304 1784
1304 1828
1304 1829
1304 1830
1304 1831
1305 1538
1305 1559
1305 1576
1305 1597
1305 1729
1305 1745
1305 1761
1305 1777
1305 1844
1305 1845
1305 1846
1305 1847
1306 1549
1306 1560
1306 1575
1306 1586
1306 1734
1306 1750
1306 1766
1306 1782
1306 1796
1306 1797
1306 1798
1306 1799
1307 1544
1307 1565
1307 1570
1307 1591
1307 1743
1307 1759
1307 1775
1307 1791
1307 1812
1307 1813
1307 1814
1307 1815
1308 1545
1308 1564
1308 1571
1308 1590
1308 1738
1308 1754
1308 1770
1308 1786
1308 1828
1308 1829
1308 1830
1308 1831
1309 1548
1309 1561
1309 1574
1309 1587
1309 1731
1309 1747
1309 1763
1309 1779
1309 1844
1309 1845
1309 1846
1309 1847
1310 1539
1310 1558
1310 1577
1310 1596
1310 1732
1310 1748
1310 1764
1310 1780
1310 1796
1310 1797
1310 1798
1310 1799
1311 1542
1311 1555
1311 1580
1311 1593
1311 1741
1311 1757
1311 1773
1311 1789
1311 1812
1311 1813
1311 1814
1311 1815
1312 1536
1312 1557
1312 1578
1312 1599
1312 1741
1312 1757
1312 1773
1312 1789
1312 1848
1312 1849
1312 1850
1312 1851
1313 1541
1313 1552
1313 1583
1313 1594
1313 1732
1313 1748
1313 1764
1313 1780
1313 1832
1313 1833
1313 1834
1313 1835
1314 1546
1314 1567
1314 1568
1314 1589
1314 1731
1314 1747
1314 1763
1314 1779
1314 1816
1314 1817
1314 1818
1314 1819
1315 1551
1315 1562
1315 1573
1315 1584
1315 1738
1315 1754
1315 1770
1315 1786
1315 1800
1315 1801
1315 1802
1315 1803
1316 1550
1316 1563
1316 1572
1316 1585
1316 1743
1316 1759
1316 1775
1316 1791
1316 1848
1316 1849
1316 1850
1316 1851
1317 1547
1317 1566
1317 1569
1317 1588
1317 1734
1317 1750
1317 1766
1317 1782
1317 1832
1317 1833
1317 1834
1317 1835
1318 1540
1318 1553
1318 1582
1318 1595
1318 1729
1318 1745
1318 1761
1318 1777
1318 1816
1318 1817
1318 1818
1318 1819
1319 1537
1319 1556
1319 1579
1319 1598
1319 1736
1319 1752
1319 1768
1319 1784
1319 1800
1319 1801
1319 1802
1319 1803
1320 1543
1320 1554
1320 1581
1320 1592
1320 1742
1320 1758
1320 1774
1320 1790
1320 1848
1320 1849
1320 1850
1320 1851
1321 1538
1321 1559
1321 1576
1321 1597
1321 1735
1321 1751
1321 1767
1321 1783
1321 1832
1321 1833
1321 1834
1321 1835
1322 1549
1322 1560
1322 1575
1322 1586
1322 1728
1322 1744
1322 1760
1322 1776
1322 1816
1322 1817
1322 1818
1322 1819
1323 1544
1323 1565
1323 1570
1323 1591
1323 1737
1323 1753
1323 1769
1323 1785
1323 1800
1323 1801
1323 1802
1323 1803
1324 1545
1324 1564
1324 1571
1324 1590
1324 1740
1324 1756
1324 1772
1324 1788
1324 1848
1324 1849
1324 1850
1324 1851
1325 1548
1325 1561
1325 1574
1325 1587
1325 1733
1325 1749
1325 1765
1325 1781
1325 1832
1325 1833
1325 1834
1325 1835
1326 1539
1326 1558
1326 1577
1326 1596
1326 1730
1326 1746
1326 1762
1326 1778
1326 1816
1326 1817
1326 1818
1326 1819
1327 1542
1327 1555
1327 1580
1327 1593
1327 1739
1327 1755
1327 1771
1327 1787
1327 1800
1327 1801
1327 1802
1327 1803
1328 1536
1328 1557
1328 1578
1328 1599
1328 1734
1328 1750
1328 1766
1328 1782
1328 1820
1328 1821
1328 1822
1328 1823
1329 1541
1329 1552
1329 1583
1329 1594
1329 1743
1329 1759
1329 1775
1329 1791
1329 1804
1329 1805
1329 1806
1329 1807
1330 1546
1330 1567
1330 1568
1330 1589
1330 1736
1330 1752
1330 1768
1330 1784
1330 1852
1330 1853
1330 1854
1330 1855
1331 1551
1331 1562
1331 1573
1331 1584
1331 1729
1331 1745
1331 1761
1331 1777
1331 1836
1331 1837
1331 1838
1331 1839
1332 1550
1332 1563
1332 1572
1332 1585
1332 1732
1332 1748
1332 1764
1332 1780
1332 1820
1332 1821
1332 1822
1332 1823
1333 1547
1333 1566
1333 1569
1333 1588
1333 1741
1333 1757
1333 1773
1333 1789
1333 1804
1333 1805
1333 1806
1333 1807
1334 1540
1334 1553
1334 1582
1334 1595
1334 1738
1334 1754
1334 1770
1334 1786
1334 1852
1334 1853
1334 1854
1334 1855
1335 1537
1335 1556
1335 1579
1335 1598
1335 1731
1335 1747
1335 1763
1335 1779
1335 1836
1335 1837
1335 1838
1335 1839
1336 1543
1336 1554
1336 1581
1336 1592
1336 1733
1336 1749
1336 1765
1336 1781
1336 1820
1336 1821
1336 1822
1336 1823
1337 1538
1337 1559
1337 1576
1337 1597
1337 1740
1337 1756
1337 1772
1337 1788
1337 1804
1337 1805
1337 1806
1337 1807
1338 1549
1338 1560
1338 1575
1338 1586
1338 1739
1338 1755
1338 1771
1338 1787
1338 1852
1338 1853
1338 1854
1338 1855
1339 1544
1339 1565
1339 1570
1339 1591
1339 1730
1339 1746
1339 1762
1339 1778
1339 1836
1339 1837
1339 1838
1339 1839
1340 1545
1340 1564
1340 1571
1340 1590
1340 1735
1340 1751
1340 1767
1340 1783
1340 1820
1340 1821
1340 1822
1340 1823
1341 1548
1341 1561
1341 1574
1341 1587
1341 1742
1341 1758
1341 1774
1341 1790
1341 1804
1341 1805
1341 1806
1341 1807
1342 1539
1342 1558
1342 1577
1342 1596
1342 1737
1342 1753
1342 1769
1342 1785
1342 1852
1342 1853
1342 1854
1342 1855
1343 1542
1343 1555
1343 1580
1343 1593
1343 1728
1343 1744
1343 1760
1343 1776
1343 1836
1343 1837
1343 1838
1343 1839
1344 1408
1344 1429
1344 1450
1344 1471
1345 1409
1345 1428
1345 1451
1345 1470
1346 1410
1346 1431
1346 1448
1346 1469
1347 1411
1347 1430
1347 1449
1347 1468
1348 1414
1348 1427
1348 1452
1348 1465
1349 1415
1349 1426
1349 1453
1349 1464
1350 1412
1350 1425
1350 1454
1350 1467
1351 1413
1351 1424
1351 1455
1351 1466
1352 1419
1352 1438
1352 1441
1352 1460
1353 1418
1353 1439
1353 1440
1353 1461
1354 1417
1354 1436
1354 1443
1354 1462
1355 1416
1355 1437
1355 1442
1355 1463
1356 1421
1356 1432
1356 1447
1356 1458
1357 1420
1357 1433
1357 1446
1357 1459
1358 1423
1358 1434
1358 1445
1358 1456
1359 1422
1359 1435
1359 1444
1359 1457
1360 1408
1360 1429
1360 1450
1360 1471
1361 1409
1361 1428
1361 1451
1361 1470
1362 1410
1362 1431
1362 1448
1362 1469
1363 1411
1363 1430
1363 1449
1363 1468
1364 1414
1364 1427
1364 1452
1364 1465
1365 1415
1365 1426
1365 1453
1365 1464
1366 1412
1366 1425
1366 1454
1366 1467
1367 1413
1367 1424
1367 1455
1367 1466
1368 1419
1368 1438
1368 1441
1368 1460
1369 1418
1369 1439
1369 1440
1369 1461
1370 1417
1370 1436
1370 1443
1370 1462
1371 1416
1371 1437
1371 1442
1371 1463
1372 1421
1372 1432
1372 1447
1372 1458
1373 1420
1373 1433
1373 1446
1373 1459
1374 1423
1374 1434
1374 1445
1374 1456
1375 1422
1375 1435
1375 1444
1375 1457
1376 1408
1376 1429
1376 1450
1376 1471
1377 1409
1377 1428
1377 1451
1377 1470
1378 1410
1378 1431
1378 1448
1378 1469
1379 1411
1379 1430
1379 1449
1379 1468
1380 1414
1380 1427
1380 1452
1380 1465
1381 1415
1381 1426
1381 1453
1381 1464
1382 1412
1382 1425
1382 1454
1382 1467
1383 1413
1383 1424
1383 1455
1383 1466
1384 1419
1384 1438
1384 1441
1384 1460
1385 1418
1385 1439
1385 1440
1385 1461
1386 1417
1386 1436
1386 1443
1386 1462
1387 1416
1387 1437
1387 1442
1387 1463
1388 1421
1388 1432
1388 1447
1388 1458
1389 1420
1389 1433
1389 1446
1389 1459
1390 1423
1390 1434
1390 1445
1390 1456
1391 1422
1391 1435
1391 1444
1391 1457
1392 1408
1392 1429
1392 1450
1392 1471
1393 1409
1393 1428
1393 1451
1393 1470
1394 1410
1394 1431
1394 1448
1394 1469
1395 1411
1395 1430
1395 1449
1395 1468
1396 1414
1396 1427
1396 1452
1396 1465
1397 1415
1397 1426
1397 1453
1397 1464
1398 1412
1398 1425
1398 1454
1398 1467
1399 1413
1399 1424
1399 1455
1399 1466
1400 1419
1400 1438
1400 1441
1400 1460
1401 1418
1401 1439
1401 1440
1401 1461
1402 1417
1402 1436
1402 1443
1402 1462
1403 1416
1403 1437
1403 1442
1403 1463
1404 1421
1404 1432
1404 1447
1404 1458
1405 1420
1405 1433
1405 1446
1405 1459
1406 1423
1406 1434
1406 1445
1406 1456
1407 1422
1407 1435
1407 1444
1407 1457
1408 1792
1408 1813
1408 1834
1408 1855
1409 1797
1409 1808
1409 1839
1409 1850
1410 1802
1410 1823
1410 1824
1410 1845
1411 1807
1411 1818
1411 1829
1411 1840
1412 1806
1412 1819
1412 1828
1412 1841
1413 1803
1413 1822
1413 1825
1413 1844
1414 1796
1414 1809
1414 1838
1414 1851
1415 1793
1415 1812
1415 1835
1415 1854
1416 1799
1416 1810
1416 1837
1416 1848
1417 1794
1417 1815
1417 1832
1417 1853
1418 1805
1418 1816
1418 1831
1418 1842
1419 1800
1419 1821
1419 1826
1419 1847
1420 1801
1420 1820
1420 1827
1420 1846
1421 1804
1421 1817
1421 1830
1421 1843
1422 1795
1422 1814
1422 1833
1422 1852
1423 1798
1423 1811
1423 1836
1423 1849
1424 1792
1424 1813
1424 1834
1424 1855
1425 1797
1425 1808
1425 1839
1425 1850
1426 1802
1426 1823
1426 1824
1426 1845
1427 1807
1427 1818
1427 1829
1427 1840
1428 1806
1428 1819
1428 1828
1428 1841
1429 1803
1429 1822
1429 1825
1429 1844
1430 1796
1430 1809
1430 1838
1430 1851
1431 1793
1431 1812
1431 1835
1431 1854
1432 1799
1432 1810
1432 1837
1432 1848
1433 1794
1433 1815
1433 1832
1433 1853
1434 1805
1434 1816
1434 1831
1434 1842
1435 1800
1435 1821
1435 1826
1435 1847
1436 1801
1436 1820
1436 1827
1436 1846
1437 1804
1437 1817
1437 1830
1437 1843
1438 1795
1438 1814
1438 1833
1438 1852
1439 1798
1439 1811
1439 1836
1439 1849
1440 1792
1440 1813
1440 1834
1440 1855
1441 1797
1441 1808
1441 1839
1441 1850
1442 1802
1442 1823
1442 1824
1442 1845
1443 1807
1443 1818
1443 1829
1443 1840
1444 1806
1444 1819
1444 1828
1444 1841
1445 1803
1445 1822
1445 1825
1445 1844
1446 1796
1446 1809
1446 1838
1446 1851
1447 1793
1447 1812
1447 1835
1447 1854
1448 1799
1448 1810
1448 1837
1448 1848
1449 1794
1449 1815
1449 1832
1449 1853
1450 1805
1450 1816
1450 1831
1450 1842
1451 1800
1451 1821
1451 1826
1451 1847
1452 1801
1452 1820
1452 1827
1452 1846
1453 1804
1453 1817
1453 1830
1453 1843
1454 1795
1454 1814
1454 1833
1454 1852
1455 1798
1455 1811
1455 1836
1455 1849
1456 1792
1456 1813
1456 1834
1456 1855
1457 1797
1457 1808
1457 1839
1457 1850
1458 1802
1458 1823
1458 1824
1458 1845
1459 1807
1459 1818
1459 1829
1459 1840
1460 1806
1460 1819
1460 1828
1460 1841
1461 1803
1461 1822
1461 1825
1461 1844
1462 1796
1462 1809
1462 1838
1462 1851
1463 1793
1463 1812
1463 1835
1463 1854
1464 1799
1464 1810
1464 1837
1464 1848
1465 1794
1465 1815
1465 1832
1465 1853
1466 1805
1466 1816
1466 1831
1466 1842
1467 1800
1467 1821
1467 1826
1467 1847
1468 1801
1468 1820
1468 1827
1468 1846
1469 1804
1469 1817
1469 1830
1469 1843
1470 1795
1470 1814
1470 1833
1470 1852
1471 1798
1471 1811
1471 1836
1471 1849
1472 1792
1472 1808
1472 1824
1472 1840
1473 1805
1473 1821
1473 1837
1473 1853
1474 1798
1474 1814
1474 1830
1474 1846
1475 1803
1475 1819
1475 1835
1475 1851
1476 1806
1476 1822
1476 1838
1476 1854
1477 1795
1477 1811
1477 1827
1477 1843
1478 1800
1478 1816
1478 1832
1478 1848
1479 1797
1479 1813
1479 1829
1479 1845
1480 1799
1480 1815
1480 1831
1480 1847
1481 1802
1481 1818
1481 1834
1481 1850
1482 1793
1482 1809
1482 1825
1482 1841
1483 1804
1483 1820
1483 1836
1483 1852
1484 1801
1484 1817
1484 1833
1484 1849
1485 1796
1485 1812
1485 1828
1485 1844
1486 1807
1486 1823
1486 1839
1486 1855
1487 1794
1487 1810
1487 1826
1487 1842
1488 1795
1488 1811
1488 1827
1488 1843
1489 1806
1489 1822
1489 1838
1489 1854
1490 1797
1490 1813
1490 1829
1490 1845
1491 1800
1491 1816
1491 1832
1491 1848
1492 1805
1492 1821
1492 1837
1492 1853
1493 1792
1493 1808
1493 1824
1493 1840
1494 1803
1494 1819
1494 1835
1494 1851
1495 1798
1495 1814
1495 1830
1495 1846
1496 1796
1496 1812
1496 1828
1496 1844
1497 1801
1497 1817
1497 1833
1497 1849
1498 1794
1498 1810
1498 1826
1498 1842
1499 1807
1499 1823
1499 1839
1499 1855
1500 1802
1500 1818
1500 1834
1500 1850
1501 1799
1501 1815
1501 1831
1501 1847
1502 1804
1502 1820
1502 1836
1502 1852
1503 1793
1503 1809
1503 1825
1503 1841
1504 1793
1504 1809
1504 1825
1504 1841
1505 1804
1505 1820
1505 1836
1505 1852
1506 1799
1506 1815
1506 1831
1506 1847
1507 1802
1507 1818
1507 1834
1507 1850
1508 1807
1508 1823
1508 1839
1508 1855
1509 1794
1509 1810
1509 1826
1509 1842
1510 1801
1510 1817
1510 1833
1510 1849
1511 1796
1511 1812
1511 1828
1511 1844
1512 1798
1512 1814
1512 1830
1512 1846
1513 1803
1513 1819
1513 1835
1513 1851
1514 1792
1514 1808
1514 1824
1514 1840
1515 1805
1515 1821
1515 1837
1515 1853
1516 1800
1516 1816
1516 1832
1516 1848
1517 1797
1517 1813
1517 1829
1517 1845
1518 1806
1518 1822
1518 1838
1518 1854
1519 1795
1519 1811
1519 1827
1519 1843
1520 1794
1520 1810
1520 1826
1520 1842
1521 1807
1521 1823
1521 1839
1521 1855
1522 1796
1522 1812
1522 1828
1522 1844
1523 1801
1523 1817
1523 1833
1523 1849
1524 1804
1524 1820
1524 1836
1524 1852
1525 1793
1525 1809
1525 1825
1525 1841
1526 1802
1526 1818
1526 1834
1526 1850
1527 1799
1527 1815
1527 1831
1527 1847
1528 1797
1528 1813
1528 1829
1528 1845
1529 1800
1529 1816
1529 1832
1529 1848
1530 1795
1530 1811
1530 1827
1530 1843
1531 1806
1531 1822
1531 1838
1531 1854
1532 1803
1532 1819
1532 1835
1532 1851
1533 1798
1533 1814
1533 1830
1533 1846
1534 1805
1534 1821
1534 1837
1534 1853
1535 1792
1535 1808
1535 1824
1535 1840
1536 1728
1536 1732
1536 1736
1536 1740
1537 1728
1537 1732
1537 1736
1537 1740
1538 1728
1538 1732
1538 1736
1538 1740
1539 1728
1539 1732
1539 1736
1539 1740
1540 1761
1540 1765
1540 1769
1540 1773
1541 1761
1541 1765
1541 1769
1541 1773
1542 1761
1542 1765
1542 1769
1542 1773
1543 1761
1543 1765
1543 1769
1543 1773
1544 1778
1544 1782
1544 1786
1544 1790
1545 1778
1545 1782
1545 1786
1545 1790
1546 1778
1546 1782
1546 1786
1546 1790
1547 1778
1547 1782
1547 1786
1547 1790
1548 1747
1548 1751
1548 1755
1548 1759
1549 1747
1549 1751
1549 1755
1549 1759
1550 1747
1550 1751
1550 1755
1550 1759
1551 1747
1551 1751
1551 1755
1551 1759
1552 1730
1552 1734
1552 1738
1552 1742
1553 1730
1553 1734
1553 1738
1553 1742
1554 1730
1554 1734
1554 1738
1554 1742
1555 1730
1555 1734
1555 1738
1555 1742
1556 1763
1556 1767
1556 1771
1556 1775
1557 1763
1557 1767
1557 1771
1557 1775
1558 1763
1558 1767
1558 1771
1558 1775
1559 1763
1559 1767
1559 1771
1559 1775
1560 1776
1560 1780
1560 1784
1560 1788
1561 1776
1561 1780
1561 1784
1561 1788
1562 1776
1562 1780
1562 1784
1562 1788
1563 1776
1563 1780
1563 1784
1563 1788
1564 1745
1564 1749
1564 1753
1564 1757
1565 1745
1565 1749
1565 1753
1565 1757
1566 1745
1566 1749
1566 1753
1566 1757
1567 1745
1567 1749
1567 1753
1567 1757
1568 1731
1568 1735
1568 1739
1568 1743
1569 1731
1569 1735
1569 1739
1569 1743
1570 1731
1570 1735
1570 1739
1570 1743
1571 1731
1571 1735
1571 1739
1571 1743
1572 1762
1572 1766
1572 1770
1572 1774
1573 1762
1573 1766
1573 1770
1573 1774
1574 1762
1574 1766
1574 1770
1574 1774
1575 1762
1575 1766
1575 1770
1575 1774
1576 1777
1576 1781
1576 1785
1576 1789
1577 1777
1577 1781
1577 1785
1577 1789
1578 1777
1578 1781
1578 1785
1578 1789
1579 1777
1579 1781
1579 1785
1579 1789
1580 1744
1580 1748
1580 1752
1580 1756
1581 1744
1581 1748
1581 1752
1581 1756
1582 1744
1582 1748
1582 1752
1582 1756
1583 1744
1583 1748
1583 1752
1583 1756
1584 1729
1584 1733
1584 1737
1584 1741
1585 1729
1585 1733
1585 1737
1585 1741
1586 1729
1586 1733
1586 1737
1586 1741
1587 1729
1587 1733
1587 1737
1587 1741
1588 1760
1588 1764
1588 1768
1588 1772
1589 1760
1589 1764
1589 1768
1589 1772
1590 1760
1590 1764
1590 1768
1590 1772
1591 1760
1591 1764
1591 1768
1591 1772
1592 1779
1592 1783
1592 1787
1592 1791
1593 1779
1593 1783
1593 1787
1593 1791
1594 1779
1594 1783
1594 1787
1594 1791
1595 1779
1595 1783
1595 1787
1595 1791
1596 1746
1596 1750
1596 1754
1596 1758
1597 1746
1597 1750
1597 1754
1597 1758
1598 1746
1598 1750
1598 1754
1598 1758
1599 1746
1599 1750
1599 1754
1599 1758
